
     Program PWSCF v.7.5 starts on 25Jul2026 at 22:27: 1 

     This program is part of the open-source Quantum ESPRESSO suite
     for quantum simulation of materials; please cite
         "P. Giannozzi et al., J. Phys.:Condens. Matter 21 395502 (2009);
         "P. Giannozzi et al., J. Phys.:Condens. Matter 29 465901 (2017);
         "P. Giannozzi et al., J. Chem. Phys. 152 154105 (2020);
          URL http://www.quantum-espresso.org", 
     in publications or presentations arising from this work. More details at
     http://www.quantum-espresso.org/quote

     Parallel version (MPI & OpenMP), running on      10 processor cores
     Number of MPI processes:                10
     Threads/MPI process:                     1

     MPI processes distributed on     1 nodes
     213762 MiB available memory on the printing compute node when the environment starts

     Reading input from espresso.pwi
Warning: card &CELL ignored
Warning: card &FCP ignored
Warning: card &RISM ignored

     Current dimensions of program PWSCF are:
     Max number of different atomic species (ntypx) = 10
     Max number of k-points (npk) =  40000
     Max angular momentum in pseudopotentials (lmaxx) =  4
     file C.pbe-n-kjpaw_psl.1.0.0.UPF: wavefunction(s)  2S 2P renormalized

     R & G space division:  proc/nbgrp/npool/nimage =      10
     Subspace diagonalization in iterative solution of the eigenvalue problem:
     a serial algorithm will be used


     Parallelization info
     --------------------
     sticks:   dense  smooth     PW     G-vecs:    dense   smooth      PW
     Min         426     426    114                49202    49202    6788
     Max         427     427    115                49219    49219    6795
     Sum        4267    4267   1147               492131   492131   67919

     Using Slab Decomposition



     bravais-lattice index     =            0
     lattice parameter (alat)  =      13.9462  a.u.
     unit-cell volume          =    5092.8389 (a.u.)^3
     number of atoms/cell      =           19
     number of atomic types    =            2
     number of electrons       =        90.00
     number of Kohn-Sham states=           54
     kinetic-energy cutoff     =      80.0000  Ry
     charge density cutoff     =     320.0000  Ry
     scf convergence threshold =      1.0E-06
     mixing beta               =       0.1000
     number of iterations used =            8  local-TF  mixing
     Exchange-correlation=  SLA  PW   PBX  PBC
                           (   1   4   3   4   0   0   0)

     celldm(1)=  13.946179  celldm(2)=   0.000000  celldm(3)=   0.000000
     celldm(4)=   0.000000  celldm(5)=   0.000000  celldm(6)=   0.000000

     crystal axes: (cart. coord. in units of alat)
               a(1) = (   1.000000   0.000000   0.000000 )  
               a(2) = (  -0.500000   0.866025   0.000000 )  
               a(3) = (   0.000000  -0.000000   2.168022 )  

     reciprocal axes: (cart. coord. in units 2 pi/alat)
               b(1) = (  1.000000  0.577350  0.000000 )  
               b(2) = ( -0.000000  1.154701  0.000000 )  
               b(3) = (  0.000000 -0.000000  0.461250 )  


     PseudoPot. # 1 for C  read from file:
     /lustre07/scratch/tanay11/siesta-qe-notebook-benchmark/pseudo_espresso/C.pbe-n-kjpaw_psl.1.0.0.UPF
     MD5 check sum: 5d2aebdfa2cae82b50a7e79e9516da0f
     Pseudo is Projector augmented-wave + core cor, Zval =  4.0
     Generated using "atomic" code by A. Dal Corso  v.5.1
     Shape of augmentation charge: PSQ
     Using radial grid of 1073 points,  4 beta functions with: 
                l(1) =   0
                l(2) =   0
                l(3) =   1
                l(4) =   1
     Q(r) pseudized with 0 coefficients 


     PseudoPot. # 2 for Ni read from file:
     /lustre07/scratch/tanay11/siesta-qe-notebook-benchmark/pseudo_espresso/ni_pbe_v1.4.uspp.F.UPF
     MD5 check sum: 1ee80287db30b12d2bc1f57a5b5d6409
     Pseudo is Ultrasoft + core correction, Zval = 18.0
     Generated by new atomic code, or converted to UPF format
     Using radial grid of  865 points,  6 beta functions with: 
                l(1) =   0
                l(2) =   0
                l(3) =   1
                l(4) =   1
                l(5) =   2
                l(6) =   2
     Q(r) pseudized with 10 coefficients,  rinner =    0.980   0.980   0.980
                                                       0.980   0.980

     atomic species   valence    mass     pseudopotential
     C                 4.00    12.01100     C ( 1.00)
     Ni               18.00    58.69340     Ni( 1.00)

     No symmetry found



   Cartesian axes

     site n.     atom                  positions (alat units)
         1        C      tau(   1) = (   0.0002385   0.0022879   1.0883344  )
         2        C      tau(   2) = (   0.1669571   0.0967732   1.0865743  )
         3        C      tau(   3) = (  -0.1648431   0.2881850   1.0882213  )
         4        C      tau(   4) = (   0.0003801   0.3853467   1.0876957  )
         5        C      tau(   5) = (  -0.3312283   0.5788481   1.0864197  )
         6        C      tau(   6) = (  -0.1645711   0.6752427   1.0882577  )
         7        C      tau(   7) = (   0.3336871   0.0005875   1.0867061  )
         8        C      tau(   8) = (   0.5001279   0.0954060   1.0864691  )
         9        C      tau(   9) = (   0.1659616   0.2885689   1.0863082  )
        10        C      tau(  10) = (   0.3323569   0.3846930   1.0853023  )
        11        C      tau(  11) = (   0.0003111   0.5778312   1.0880140  )
        12        C      tau(  12) = (   0.1657792   0.6746847   1.0882034  )
        13        C      tau(  13) = (   0.6668925   0.0005385   1.0877186  )
        14        C      tau(  14) = (   0.8336705   0.0966666   1.0880979  )
        15        C      tau(  15) = (   0.5000664   0.2876919   1.0853705  )
        16        C      tau(  16) = (   0.6683430   0.3843944   1.0866628  )
        17        C      tau(  17) = (   0.3322854   0.5783340   1.0872054  )
        18        C      tau(  18) = (   0.5000706   0.6758368   1.0873001  )
        19        Ni     tau(  19) = (   0.5219698   0.4916157   1.2983470  )

     number of k points=     5  Marzari-Vanderbilt smearing, width (Ry)=  0.0200
                       cart. coord. in units 2pi/alat
        k(    1) = (   0.0000000   0.0000000   0.0000000), wk =   0.2222222
        k(    2) = (   0.0000000   0.3849002   0.0000000), wk =   0.4444444
        k(    3) = (   0.3333333   0.5773503   0.0000000), wk =   0.4444444
        k(    4) = (  -0.3333333   0.1924501   0.0000000), wk =   0.4444444
        k(    5) = (   0.3333333   0.1924501   0.0000000), wk =   0.4444444

     Dense  grid:   492131 G-vectors     FFT dimensions: (  80,  80, 180)

     Estimated max dynamical RAM per process >     257.57 MB

     Estimated total dynamical RAM >       2.52 GB
 ----2D----2D----2D----2D----2D----2D----2D----2D----2D----2D----2D----2D
  The code is running with the 2D cutoff
  Please refer to:
  Sohier, T., Calandra, M., & Mauri, F. (2017), 
  Density functional perturbation theory for gated two-dimensional heterostructures:
  Theoretical developments and application to flexural phonons in graphene.
  Physical Review B, 96(7), 75448. https://doi.org/10.1103/PhysRevB.96.075448
 ----2D----2D----2D----2D----2D----2D----2D----2D----2D----2D----2D----2D

     Check: negative core charge=   -0.000005

     Initial potential from superposition of free atoms

     starting charge      87.9993, renormalised to      90.0000

     negative rho (up, down):  2.915E-04 0.000E+00
     Starting wfcs are   85 randomized atomic wfcs
     Checking if some PAW data can be deallocated... 

     total cpu time spent up to now is        2.8 secs

     per-process dynamical memory:   166.2 Mb

     Self-consistent Calculation

     iteration #  1     ecut=    80.00 Ry     beta= 0.10
     Davidson diagonalization with overlap
     ethr =  1.00E-02,  avg # of iterations =  7.6

     negative rho (up, down):  1.135E-02 0.000E+00

     total cpu time spent up to now is        8.4 secs

     total energy              =    -676.45032926 Ry
     estimated scf accuracy    <       7.83573189 Ry

     iteration #  2     ecut=    80.00 Ry     beta= 0.10
     Davidson diagonalization with overlap
     ethr =  8.71E-03,  avg # of iterations =  1.0

     negative rho (up, down):  1.646E-01 0.000E+00

     total cpu time spent up to now is       11.9 secs

     total energy              =    -674.46141163 Ry
     estimated scf accuracy    <       6.79951370 Ry

     iteration #  3     ecut=    80.00 Ry     beta= 0.10
     Davidson diagonalization with overlap
     ethr =  7.56E-03,  avg # of iterations =  1.8

     negative rho (up, down):  1.107E-01 0.000E+00

     total cpu time spent up to now is       15.6 secs

     total energy              =    -675.27808069 Ry
     estimated scf accuracy    <       0.96874420 Ry

     iteration #  4     ecut=    80.00 Ry     beta= 0.10
     Davidson diagonalization with overlap
     ethr =  1.08E-03,  avg # of iterations =  1.8

     negative rho (up, down):  1.331E-01 0.000E+00

     total cpu time spent up to now is       19.3 secs

     total energy              =    -675.11274257 Ry
     estimated scf accuracy    <       0.92778667 Ry

     iteration #  5     ecut=    80.00 Ry     beta= 0.10
     Davidson diagonalization with overlap
     ethr =  1.03E-03,  avg # of iterations =  1.2

     negative rho (up, down):  1.040E-01 0.000E+00

     total cpu time spent up to now is       22.8 secs

     total energy              =    -675.02725475 Ry
     estimated scf accuracy    <       0.40511203 Ry

     iteration #  6     ecut=    80.00 Ry     beta= 0.10
     Davidson diagonalization with overlap
     ethr =  4.50E-04,  avg # of iterations =  5.4

     negative rho (up, down):  5.119E-02 0.000E+00

     total cpu time spent up to now is       27.8 secs

     total energy              =    -675.01918003 Ry
     estimated scf accuracy    <       0.37659129 Ry

     iteration #  7     ecut=    80.00 Ry     beta= 0.10
     Davidson diagonalization with overlap
     ethr =  4.18E-04,  avg # of iterations =  1.2

     negative rho (up, down):  2.001E-02 0.000E+00

     total cpu time spent up to now is       31.3 secs

     total energy              =    -675.03420736 Ry
     estimated scf accuracy    <       0.24577755 Ry

     iteration #  8     ecut=    80.00 Ry     beta= 0.10
     Davidson diagonalization with overlap
     ethr =  2.73E-04,  avg # of iterations =  2.0

     negative rho (up, down):  5.862E-03 0.000E+00

     total cpu time spent up to now is       35.1 secs

     total energy              =    -675.02742509 Ry
     estimated scf accuracy    <       0.08600081 Ry

     iteration #  9     ecut=    80.00 Ry     beta= 0.10
     Davidson diagonalization with overlap
     ethr =  9.56E-05,  avg # of iterations =  4.8

     negative rho (up, down):  1.028E-04 0.000E+00

     total cpu time spent up to now is       39.4 secs

     total energy              =    -675.03340731 Ry
     estimated scf accuracy    <       0.03715285 Ry

     iteration # 10     ecut=    80.00 Ry     beta= 0.10
     Davidson diagonalization with overlap
     ethr =  4.13E-05,  avg # of iterations =  2.6

     negative rho (up, down):  2.378E-03 0.000E+00

     total cpu time spent up to now is       43.3 secs

     total energy              =    -675.01705979 Ry
     estimated scf accuracy    <       0.03703830 Ry

     iteration # 11     ecut=    80.00 Ry     beta= 0.10
     Davidson diagonalization with overlap
     ethr =  4.12E-05,  avg # of iterations =  9.6

     negative rho (up, down):  6.801E-04 0.000E+00

     total cpu time spent up to now is       48.6 secs

     total energy              =    -675.02171889 Ry
     estimated scf accuracy    <       0.01555594 Ry

     iteration # 12     ecut=    80.00 Ry     beta= 0.10
     Davidson diagonalization with overlap
     ethr =  1.73E-05,  avg # of iterations =  1.8

     negative rho (up, down):  1.614E-05 0.000E+00

     total cpu time spent up to now is       52.3 secs

     total energy              =    -675.01952378 Ry
     estimated scf accuracy    <       0.01121220 Ry

     iteration # 13     ecut=    80.00 Ry     beta= 0.10
     Davidson diagonalization with overlap
     ethr =  1.25E-05,  avg # of iterations =  4.0

     negative rho (up, down):  3.148E-02 0.000E+00

     total cpu time spent up to now is       56.4 secs

     total energy              =    -675.01581173 Ry
     estimated scf accuracy    <       0.00796041 Ry

     iteration # 14     ecut=    80.00 Ry     beta= 0.10
     Davidson diagonalization with overlap
     ethr =  8.84E-06,  avg # of iterations =  5.8

     negative rho (up, down):  2.032E-02 0.000E+00

     total cpu time spent up to now is       61.0 secs

     total energy              =    -675.01512191 Ry
     estimated scf accuracy    <       0.00463532 Ry

     iteration # 15     ecut=    80.00 Ry     beta= 0.10
     Davidson diagonalization with overlap
     ethr =  5.15E-06,  avg # of iterations =  1.8

     negative rho (up, down):  3.415E-02 0.000E+00

     total cpu time spent up to now is       64.7 secs

     total energy              =    -675.01229917 Ry
     estimated scf accuracy    <       0.00382844 Ry

     iteration # 16     ecut=    80.00 Ry     beta= 0.10
     Davidson diagonalization with overlap
     ethr =  4.25E-06,  avg # of iterations = 15.8

     negative rho (up, down):  3.553E-02 0.000E+00

     total cpu time spent up to now is       70.6 secs

     total energy              =    -675.01249961 Ry
     estimated scf accuracy    <       0.00150092 Ry

     iteration # 17     ecut=    80.00 Ry     beta= 0.10
     Davidson diagonalization with overlap
     ethr =  1.67E-06,  avg # of iterations =  7.4

     negative rho (up, down):  2.019E-02 0.000E+00

     total cpu time spent up to now is       74.9 secs

     total energy              =    -675.01171289 Ry
     estimated scf accuracy    <       0.00128550 Ry

     iteration # 18     ecut=    80.00 Ry     beta= 0.10
     Davidson diagonalization with overlap
     ethr =  1.43E-06,  avg # of iterations =  9.6

     negative rho (up, down):  1.600E-02 0.000E+00

     total cpu time spent up to now is       79.8 secs

     total energy              =    -675.01153127 Ry
     estimated scf accuracy    <       0.00101810 Ry

     iteration # 19     ecut=    80.00 Ry     beta= 0.10
     Davidson diagonalization with overlap
     ethr =  1.13E-06,  avg # of iterations =  8.6

     negative rho (up, down):  1.732E-02 0.000E+00

     total cpu time spent up to now is       84.9 secs

     total energy              =    -675.01165854 Ry
     estimated scf accuracy    <       0.00018247 Ry

     iteration # 20     ecut=    80.00 Ry     beta= 0.10
     Davidson diagonalization with overlap
     ethr =  2.03E-07,  avg # of iterations =  2.0

     negative rho (up, down):  1.186E-02 0.000E+00

     total cpu time spent up to now is       88.7 secs

     total energy              =    -675.01160815 Ry
     estimated scf accuracy    <       0.00018264 Ry

     iteration # 21     ecut=    80.00 Ry     beta= 0.10
     Davidson diagonalization with overlap
     ethr =  2.03E-07,  avg # of iterations =  4.6

     negative rho (up, down):  1.068E-02 0.000E+00

     total cpu time spent up to now is       92.8 secs

     total energy              =    -675.01160003 Ry
     estimated scf accuracy    <       0.00011863 Ry

     iteration # 22     ecut=    80.00 Ry     beta= 0.10
     Davidson diagonalization with overlap
     ethr =  1.32E-07,  avg # of iterations =  1.2

     negative rho (up, down):  8.119E-03 0.000E+00

     total cpu time spent up to now is       96.3 secs

     total energy              =    -675.01156318 Ry
     estimated scf accuracy    <       0.00010141 Ry

     iteration # 23     ecut=    80.00 Ry     beta= 0.10
     Davidson diagonalization with overlap
     ethr =  1.13E-07,  avg # of iterations =  5.8

     negative rho (up, down):  5.393E-03 0.000E+00

     total cpu time spent up to now is      100.6 secs

     total energy              =    -675.01163138 Ry
     estimated scf accuracy    <       0.00008479 Ry

     iteration # 24     ecut=    80.00 Ry     beta= 0.10
     Davidson diagonalization with overlap
     ethr =  9.42E-08,  avg # of iterations =  6.0

     negative rho (up, down):  2.708E-03 0.000E+00

     total cpu time spent up to now is      105.7 secs

     total energy              =    -675.01159669 Ry
     estimated scf accuracy    <       0.00009399 Ry

     iteration # 25     ecut=    80.00 Ry     beta= 0.10
     Davidson diagonalization with overlap
     ethr =  9.42E-08,  avg # of iterations =  4.8

     negative rho (up, down):  6.325E-04 0.000E+00

     total cpu time spent up to now is      110.4 secs

     total energy              =    -675.01162394 Ry
     estimated scf accuracy    <       0.00003302 Ry

     iteration # 26     ecut=    80.00 Ry     beta= 0.10
     Davidson diagonalization with overlap
     ethr =  3.67E-08,  avg # of iterations =  3.4

     negative rho (up, down):  6.199E-04 0.000E+00

     total cpu time spent up to now is      114.3 secs

     total energy              =    -675.01161384 Ry
     estimated scf accuracy    <       0.00002464 Ry

     iteration # 27     ecut=    80.00 Ry     beta= 0.10
     Davidson diagonalization with overlap
     ethr =  2.74E-08,  avg # of iterations =  1.2

     negative rho (up, down):  4.757E-04 0.000E+00

     total cpu time spent up to now is      117.9 secs

     total energy              =    -675.01161946 Ry
     estimated scf accuracy    <       0.00002716 Ry

     iteration # 28     ecut=    80.00 Ry     beta= 0.10
     Davidson diagonalization with overlap
     ethr =  2.74E-08,  avg # of iterations =  1.0

     negative rho (up, down):  5.367E-04 0.000E+00

     total cpu time spent up to now is      121.3 secs

     total energy              =    -675.01161669 Ry
     estimated scf accuracy    <       0.00002484 Ry

     iteration # 29     ecut=    80.00 Ry     beta= 0.10
     Davidson diagonalization with overlap
     ethr =  2.74E-08,  avg # of iterations =  1.0

     negative rho (up, down):  7.117E-04 0.000E+00

     total cpu time spent up to now is      124.8 secs

     total energy              =    -675.01161824 Ry
     estimated scf accuracy    <       0.00002237 Ry

     iteration # 30     ecut=    80.00 Ry     beta= 0.10
     Davidson diagonalization with overlap
     ethr =  2.49E-08,  avg # of iterations =  2.4

     negative rho (up, down):  1.713E-03 0.000E+00

     total cpu time spent up to now is      128.7 secs

     total energy              =    -675.01161330 Ry
     estimated scf accuracy    <       0.00001521 Ry

     iteration # 31     ecut=    80.00 Ry     beta= 0.10
     Davidson diagonalization with overlap
     ethr =  1.69E-08,  avg # of iterations =  4.0

     negative rho (up, down):  1.711E-03 0.000E+00

     total cpu time spent up to now is      133.2 secs

     total energy              =    -675.01161022 Ry
     estimated scf accuracy    <       0.00002287 Ry

     iteration # 32     ecut=    80.00 Ry     beta= 0.10
     Davidson diagonalization with overlap
     ethr =  1.69E-08,  avg # of iterations =  1.8

     negative rho (up, down):  1.627E-03 0.000E+00

     total cpu time spent up to now is      136.9 secs

     total energy              =    -675.01161350 Ry
     estimated scf accuracy    <       0.00001502 Ry

     iteration # 33     ecut=    80.00 Ry     beta= 0.10
     Davidson diagonalization with overlap
     ethr =  1.67E-08,  avg # of iterations =  1.0

     negative rho (up, down):  1.654E-03 0.000E+00

     total cpu time spent up to now is      140.3 secs

     total energy              =    -675.01161498 Ry
     estimated scf accuracy    <       0.00001816 Ry

     iteration # 34     ecut=    80.00 Ry     beta= 0.10
     Davidson diagonalization with overlap
     ethr =  1.67E-08,  avg # of iterations =  1.0

     negative rho (up, down):  1.670E-03 0.000E+00

     total cpu time spent up to now is      143.8 secs

     total energy              =    -675.01161676 Ry
     estimated scf accuracy    <       0.00002196 Ry

     iteration # 35     ecut=    80.00 Ry     beta= 0.10
     Davidson diagonalization with overlap
     ethr =  1.67E-08,  avg # of iterations =  1.0

     negative rho (up, down):  1.904E-03 0.000E+00

     total cpu time spent up to now is      147.3 secs

     total energy              =    -675.01161798 Ry
     estimated scf accuracy    <       0.00002238 Ry

     iteration # 36     ecut=    80.00 Ry     beta= 0.10
     Davidson diagonalization with overlap
     ethr =  1.67E-08,  avg # of iterations =  1.8

     negative rho (up, down):  1.779E-03 0.000E+00

     total cpu time spent up to now is      151.0 secs

     total energy              =    -675.01160984 Ry
     estimated scf accuracy    <       0.00002036 Ry

     iteration # 37     ecut=    80.00 Ry     beta= 0.10
     Davidson diagonalization with overlap
     ethr =  1.67E-08,  avg # of iterations =  1.0

     negative rho (up, down):  2.125E-03 0.000E+00

     total cpu time spent up to now is      154.5 secs

     total energy              =    -675.01161483 Ry
     estimated scf accuracy    <       0.00002531 Ry

     iteration # 38     ecut=    80.00 Ry     beta= 0.10
     Davidson diagonalization with overlap
     ethr =  1.67E-08,  avg # of iterations =  1.0

     negative rho (up, down):  1.728E-03 0.000E+00

     total cpu time spent up to now is      157.9 secs

     total energy              =    -675.01161069 Ry
     estimated scf accuracy    <       0.00002400 Ry

     iteration # 39     ecut=    80.00 Ry     beta= 0.10
     Davidson diagonalization with overlap
     ethr =  1.67E-08,  avg # of iterations =  2.8

     negative rho (up, down):  1.997E-03 0.000E+00

     total cpu time spent up to now is      161.9 secs

     total energy              =    -675.01161278 Ry
     estimated scf accuracy    <       0.00001232 Ry

     iteration # 40     ecut=    80.00 Ry     beta= 0.10
     Davidson diagonalization with overlap
     ethr =  1.37E-08,  avg # of iterations =  1.0

     negative rho (up, down):  1.934E-03 0.000E+00

     total cpu time spent up to now is      165.4 secs

     total energy              =    -675.01161120 Ry
     estimated scf accuracy    <       0.00001085 Ry

     iteration # 41     ecut=    80.00 Ry     beta= 0.10
     Davidson diagonalization with overlap
     ethr =  1.21E-08,  avg # of iterations =  1.2

     negative rho (up, down):  1.457E-03 0.000E+00

     total cpu time spent up to now is      168.9 secs

     total energy              =    -675.01162644 Ry
     estimated scf accuracy    <       0.00001683 Ry

     iteration # 42     ecut=    80.00 Ry     beta= 0.10
     Davidson diagonalization with overlap
     ethr =  1.21E-08,  avg # of iterations =  2.0

     negative rho (up, down):  1.448E-03 0.000E+00

     total cpu time spent up to now is      172.8 secs

     total energy              =    -675.01162829 Ry
     estimated scf accuracy    <       0.00000950 Ry

     iteration # 43     ecut=    80.00 Ry     beta= 0.10
     Davidson diagonalization with overlap
     ethr =  1.06E-08,  avg # of iterations =  1.0

     negative rho (up, down):  1.372E-03 0.000E+00

     total cpu time spent up to now is      176.3 secs

     total energy              =    -675.01162153 Ry
     estimated scf accuracy    <       0.00001392 Ry

     iteration # 44     ecut=    80.00 Ry     beta= 0.10
     Davidson diagonalization with overlap
     ethr =  1.06E-08,  avg # of iterations =  2.4

     negative rho (up, down):  1.263E-03 0.000E+00

     total cpu time spent up to now is      180.7 secs

     total energy              =    -675.01162078 Ry
     estimated scf accuracy    <       0.00000908 Ry

     iteration # 45     ecut=    80.00 Ry     beta= 0.10
     Davidson diagonalization with overlap
     ethr =  1.01E-08,  avg # of iterations =  1.0

     negative rho (up, down):  1.299E-03 0.000E+00

     total cpu time spent up to now is      184.1 secs

     total energy              =    -675.01162141 Ry
     estimated scf accuracy    <       0.00000827 Ry

     iteration # 46     ecut=    80.00 Ry     beta= 0.10
     Davidson diagonalization with overlap
     ethr =  9.19E-09,  avg # of iterations =  2.0

     negative rho (up, down):  1.749E-03 0.000E+00

     total cpu time spent up to now is      187.9 secs

     total energy              =    -675.01162817 Ry
     estimated scf accuracy    <       0.00000674 Ry

     iteration # 47     ecut=    80.00 Ry     beta= 0.10
     Davidson diagonalization with overlap
     ethr =  7.49E-09,  avg # of iterations =  1.2

     negative rho (up, down):  1.796E-03 0.000E+00

     total cpu time spent up to now is      191.4 secs

     total energy              =    -675.01162960 Ry
     estimated scf accuracy    <       0.00000643 Ry

     iteration # 48     ecut=    80.00 Ry     beta= 0.10
     Davidson diagonalization with overlap
     ethr =  7.15E-09,  avg # of iterations =  1.0

     negative rho (up, down):  1.594E-03 0.000E+00

     total cpu time spent up to now is      194.9 secs

     total energy              =    -675.01162958 Ry
     estimated scf accuracy    <       0.00000631 Ry

     iteration # 49     ecut=    80.00 Ry     beta= 0.10
     Davidson diagonalization with overlap
     ethr =  7.02E-09,  avg # of iterations =  1.0

     negative rho (up, down):  1.212E-03 0.000E+00

     total cpu time spent up to now is      198.4 secs

     total energy              =    -675.01162901 Ry
     estimated scf accuracy    <       0.00000575 Ry

     iteration # 50     ecut=    80.00 Ry     beta= 0.10
     Davidson diagonalization with overlap
     ethr =  6.39E-09,  avg # of iterations =  2.0

     negative rho (up, down):  1.300E-03 0.000E+00

     total cpu time spent up to now is      202.2 secs

     total energy              =    -675.01163162 Ry
     estimated scf accuracy    <       0.00000686 Ry

     iteration # 51     ecut=    80.00 Ry     beta= 0.10
     Davidson diagonalization with overlap
     ethr =  6.39E-09,  avg # of iterations =  2.0

     negative rho (up, down):  1.327E-03 0.000E+00

     total cpu time spent up to now is      206.1 secs

     total energy              =    -675.01163114 Ry
     estimated scf accuracy    <       0.00000699 Ry

     iteration # 52     ecut=    80.00 Ry     beta= 0.10
     Davidson diagonalization with overlap
     ethr =  6.39E-09,  avg # of iterations =  1.0

     negative rho (up, down):  1.465E-03 0.000E+00

     total cpu time spent up to now is      209.6 secs

     total energy              =    -675.01163038 Ry
     estimated scf accuracy    <       0.00000750 Ry

     iteration # 53     ecut=    80.00 Ry     beta= 0.10
     Davidson diagonalization with overlap
     ethr =  6.39E-09,  avg # of iterations =  1.0

     negative rho (up, down):  1.255E-03 0.000E+00

     total cpu time spent up to now is      213.1 secs

     total energy              =    -675.01162931 Ry
     estimated scf accuracy    <       0.00000614 Ry

     iteration # 54     ecut=    80.00 Ry     beta= 0.10
     Davidson diagonalization with overlap
     ethr =  6.39E-09,  avg # of iterations =  1.0

     negative rho (up, down):  1.651E-03 0.000E+00

     total cpu time spent up to now is      216.5 secs

     total energy              =    -675.01163176 Ry
     estimated scf accuracy    <       0.00000679 Ry

     iteration # 55     ecut=    80.00 Ry     beta= 0.10
     Davidson diagonalization with overlap
     ethr =  6.39E-09,  avg # of iterations =  2.0

     negative rho (up, down):  1.257E-03 0.000E+00

     total cpu time spent up to now is      220.4 secs

     total energy              =    -675.01163310 Ry
     estimated scf accuracy    <       0.00000618 Ry

     iteration # 56     ecut=    80.00 Ry     beta= 0.10
     Davidson diagonalization with overlap
     ethr =  6.39E-09,  avg # of iterations =  2.0

     negative rho (up, down):  2.182E-03 0.000E+00

     total cpu time spent up to now is      224.2 secs

     total energy              =    -675.01163523 Ry
     estimated scf accuracy    <       0.00000588 Ry

     iteration # 57     ecut=    80.00 Ry     beta= 0.10
     Davidson diagonalization with overlap
     ethr =  6.39E-09,  avg # of iterations =  1.2

     negative rho (up, down):  2.113E-03 0.000E+00

     total cpu time spent up to now is      227.8 secs

     total energy              =    -675.01163358 Ry
     estimated scf accuracy    <       0.00000588 Ry

     iteration # 58     ecut=    80.00 Ry     beta= 0.10
     Davidson diagonalization with overlap
     ethr =  6.39E-09,  avg # of iterations =  1.0

     negative rho (up, down):  1.967E-03 0.000E+00

     total cpu time spent up to now is      231.2 secs

     total energy              =    -675.01163338 Ry
     estimated scf accuracy    <       0.00000531 Ry

     iteration # 59     ecut=    80.00 Ry     beta= 0.10
     Davidson diagonalization with overlap
     ethr =  5.90E-09,  avg # of iterations =  1.0

     negative rho (up, down):  1.782E-03 0.000E+00

     total cpu time spent up to now is      234.7 secs

     total energy              =    -675.01164137 Ry
     estimated scf accuracy    <       0.00000501 Ry

     iteration # 60     ecut=    80.00 Ry     beta= 0.10
     Davidson diagonalization with overlap
     ethr =  5.57E-09,  avg # of iterations =  4.6

     negative rho (up, down):  1.542E-03 0.000E+00

     total cpu time spent up to now is      239.4 secs

     total energy              =    -675.01162989 Ry
     estimated scf accuracy    <       0.00002392 Ry

     iteration # 61     ecut=    80.00 Ry     beta= 0.10
     Davidson diagonalization with overlap
     ethr =  5.57E-09,  avg # of iterations =  4.8

     negative rho (up, down):  1.487E-03 0.000E+00

     total cpu time spent up to now is      244.1 secs

     total energy              =    -675.01163116 Ry
     estimated scf accuracy    <       0.00000830 Ry

     iteration # 62     ecut=    80.00 Ry     beta= 0.10
     Davidson diagonalization with overlap
     ethr =  5.57E-09,  avg # of iterations =  2.0

     negative rho (up, down):  1.593E-03 0.000E+00

     total cpu time spent up to now is      248.0 secs

     total energy              =    -675.01163107 Ry
     estimated scf accuracy    <       0.00000703 Ry

     iteration # 63     ecut=    80.00 Ry     beta= 0.10
     Davidson diagonalization with overlap
     ethr =  5.57E-09,  avg # of iterations =  1.0

     negative rho (up, down):  1.371E-03 0.000E+00

     total cpu time spent up to now is      251.4 secs

     total energy              =    -675.01163332 Ry
     estimated scf accuracy    <       0.00000582 Ry

     iteration # 64     ecut=    80.00 Ry     beta= 0.10
     Davidson diagonalization with overlap
     ethr =  5.57E-09,  avg # of iterations =  2.0

     negative rho (up, down):  1.376E-03 0.000E+00

     total cpu time spent up to now is      255.3 secs

     total energy              =    -675.01163233 Ry
     estimated scf accuracy    <       0.00000457 Ry

     iteration # 65     ecut=    80.00 Ry     beta= 0.10
     Davidson diagonalization with overlap
     ethr =  5.08E-09,  avg # of iterations =  1.0

     negative rho (up, down):  1.171E-03 0.000E+00

     total cpu time spent up to now is      258.8 secs

     total energy              =    -675.01163518 Ry
     estimated scf accuracy    <       0.00000518 Ry

     iteration # 66     ecut=    80.00 Ry     beta= 0.10
     Davidson diagonalization with overlap
     ethr =  5.08E-09,  avg # of iterations =  3.2

     negative rho (up, down):  1.689E-03 0.000E+00

     total cpu time spent up to now is      262.9 secs

     total energy              =    -675.01163657 Ry
     estimated scf accuracy    <       0.00000690 Ry

     iteration # 67     ecut=    80.00 Ry     beta= 0.10
     Davidson diagonalization with overlap
     ethr =  5.08E-09,  avg # of iterations =  2.0

     negative rho (up, down):  1.681E-03 0.000E+00

     total cpu time spent up to now is      266.8 secs

     total energy              =    -675.01163385 Ry
     estimated scf accuracy    <       0.00000837 Ry

     iteration # 68     ecut=    80.00 Ry     beta= 0.10
     Davidson diagonalization with overlap
     ethr =  5.08E-09,  avg # of iterations =  2.0

     negative rho (up, down):  1.882E-03 0.000E+00

     total cpu time spent up to now is      270.7 secs

     total energy              =    -675.01163262 Ry
     estimated scf accuracy    <       0.00001050 Ry

     iteration # 69     ecut=    80.00 Ry     beta= 0.10
     Davidson diagonalization with overlap
     ethr =  5.08E-09,  avg # of iterations =  1.4

     negative rho (up, down):  1.795E-03 0.000E+00

     total cpu time spent up to now is      274.3 secs

     total energy              =    -675.01163526 Ry
     estimated scf accuracy    <       0.00000908 Ry

     iteration # 70     ecut=    80.00 Ry     beta= 0.10
     Davidson diagonalization with overlap
     ethr =  5.08E-09,  avg # of iterations =  2.0

     negative rho (up, down):  1.808E-03 0.000E+00

     total cpu time spent up to now is      278.1 secs

     total energy              =    -675.01163530 Ry
     estimated scf accuracy    <       0.00001063 Ry

     iteration # 71     ecut=    80.00 Ry     beta= 0.10
     Davidson diagonalization with overlap
     ethr =  5.08E-09,  avg # of iterations =  1.0

     negative rho (up, down):  1.696E-03 0.000E+00

     total cpu time spent up to now is      281.6 secs

     total energy              =    -675.01163407 Ry
     estimated scf accuracy    <       0.00001191 Ry

     iteration # 72     ecut=    80.00 Ry     beta= 0.10
     Davidson diagonalization with overlap
     ethr =  5.08E-09,  avg # of iterations =  1.0

     negative rho (up, down):  1.612E-03 0.000E+00

     total cpu time spent up to now is      285.1 secs

     total energy              =    -675.01162794 Ry
     estimated scf accuracy    <       0.00001086 Ry

     iteration # 73     ecut=    80.00 Ry     beta= 0.10
     Davidson diagonalization with overlap
     ethr =  5.08E-09,  avg # of iterations =  4.8

     negative rho (up, down):  1.469E-03 0.000E+00

     total cpu time spent up to now is      290.0 secs

     total energy              =    -675.01164538 Ry
     estimated scf accuracy    <       0.00002705 Ry

     iteration # 74     ecut=    80.00 Ry     beta= 0.10
     Davidson diagonalization with overlap
     ethr =  5.08E-09,  avg # of iterations =  4.8

     negative rho (up, down):  1.430E-03 0.000E+00

     total cpu time spent up to now is      294.9 secs

     total energy              =    -675.01163593 Ry
     estimated scf accuracy    <       0.00000899 Ry

     iteration # 75     ecut=    80.00 Ry     beta= 0.10
     Davidson diagonalization with overlap
     ethr =  5.08E-09,  avg # of iterations =  2.0

     negative rho (up, down):  1.666E-03 0.000E+00

     total cpu time spent up to now is      298.7 secs

     total energy              =    -675.01163429 Ry
     estimated scf accuracy    <       0.00001313 Ry

     iteration # 76     ecut=    80.00 Ry     beta= 0.10
     Davidson diagonalization with overlap
     ethr =  5.08E-09,  avg # of iterations =  2.0

     negative rho (up, down):  1.658E-03 0.000E+00

     total cpu time spent up to now is      302.4 secs

     total energy              =    -675.01163353 Ry
     estimated scf accuracy    <       0.00001000 Ry

     iteration # 77     ecut=    80.00 Ry     beta= 0.10
     Davidson diagonalization with overlap
     ethr =  5.08E-09,  avg # of iterations =  1.0

     negative rho (up, down):  1.365E-03 0.000E+00

     total cpu time spent up to now is      305.9 secs

     total energy              =    -675.01163384 Ry
     estimated scf accuracy    <       0.00001165 Ry

     iteration # 78     ecut=    80.00 Ry     beta= 0.10
     Davidson diagonalization with overlap
     ethr =  5.08E-09,  avg # of iterations =  1.0

     negative rho (up, down):  1.400E-03 0.000E+00

     total cpu time spent up to now is      309.8 secs

     total energy              =    -675.01163789 Ry
     estimated scf accuracy    <       0.00000875 Ry

     iteration # 79     ecut=    80.00 Ry     beta= 0.10
     Davidson diagonalization with overlap
     ethr =  5.08E-09,  avg # of iterations =  3.0

     negative rho (up, down):  1.764E-03 0.000E+00

     total cpu time spent up to now is      313.9 secs

     total energy              =    -675.01163476 Ry
     estimated scf accuracy    <       0.00001599 Ry

     iteration # 80     ecut=    80.00 Ry     beta= 0.10
     Davidson diagonalization with overlap
     ethr =  5.08E-09,  avg # of iterations =  2.0

     negative rho (up, down):  1.789E-03 0.000E+00

     total cpu time spent up to now is      317.7 secs

     total energy              =    -675.01163530 Ry
     estimated scf accuracy    <       0.00001057 Ry

     iteration # 81     ecut=    80.00 Ry     beta= 0.10
     Davidson diagonalization with overlap
     ethr =  5.08E-09,  avg # of iterations =  1.0

     negative rho (up, down):  1.498E-03 0.000E+00

     total cpu time spent up to now is      321.2 secs

     total energy              =    -675.01163184 Ry
     estimated scf accuracy    <       0.00001033 Ry

     iteration # 82     ecut=    80.00 Ry     beta= 0.10
     Davidson diagonalization with overlap
     ethr =  5.08E-09,  avg # of iterations =  3.2

     negative rho (up, down):  1.645E-03 0.000E+00

     total cpu time spent up to now is      325.3 secs

     total energy              =    -675.01163112 Ry
     estimated scf accuracy    <       0.00000807 Ry

     iteration # 83     ecut=    80.00 Ry     beta= 0.10
     Davidson diagonalization with overlap
     ethr =  5.08E-09,  avg # of iterations =  1.8

     negative rho (up, down):  1.777E-03 0.000E+00

     total cpu time spent up to now is      329.0 secs

     total energy              =    -675.01162768 Ry
     estimated scf accuracy    <       0.00000888 Ry

     iteration # 84     ecut=    80.00 Ry     beta= 0.10
     Davidson diagonalization with overlap
     ethr =  5.08E-09,  avg # of iterations =  4.2

     negative rho (up, down):  1.578E-03 0.000E+00

     total cpu time spent up to now is      333.7 secs

     total energy              =    -675.01164907 Ry
     estimated scf accuracy    <       0.00002860 Ry

     iteration # 85     ecut=    80.00 Ry     beta= 0.10
     Davidson diagonalization with overlap
     ethr =  5.08E-09,  avg # of iterations =  4.8

     negative rho (up, down):  1.542E-03 0.000E+00

     total cpu time spent up to now is      338.7 secs

     total energy              =    -675.01163402 Ry
     estimated scf accuracy    <       0.00001137 Ry

     iteration # 86     ecut=    80.00 Ry     beta= 0.10
     Davidson diagonalization with overlap
     ethr =  5.08E-09,  avg # of iterations =  2.0

     negative rho (up, down):  1.581E-03 0.000E+00

     total cpu time spent up to now is      342.5 secs

     total energy              =    -675.01163502 Ry
     estimated scf accuracy    <       0.00000940 Ry

     iteration # 87     ecut=    80.00 Ry     beta= 0.10
     Davidson diagonalization with overlap
     ethr =  5.08E-09,  avg # of iterations =  1.0

     negative rho (up, down):  1.652E-03 0.000E+00

     total cpu time spent up to now is      346.1 secs

     total energy              =    -675.01163460 Ry
     estimated scf accuracy    <       0.00001004 Ry

     iteration # 88     ecut=    80.00 Ry     beta= 0.10
     Davidson diagonalization with overlap
     ethr =  5.08E-09,  avg # of iterations =  1.0

     negative rho (up, down):  1.644E-03 0.000E+00

     total cpu time spent up to now is      349.5 secs

     total energy              =    -675.01163434 Ry
     estimated scf accuracy    <       0.00000872 Ry

     iteration # 89     ecut=    80.00 Ry     beta= 0.10
     Davidson diagonalization with overlap
     ethr =  5.08E-09,  avg # of iterations =  1.0

     negative rho (up, down):  1.297E-03 0.000E+00

     total cpu time spent up to now is      353.0 secs

     total energy              =    -675.01163606 Ry
     estimated scf accuracy    <       0.00001012 Ry

     iteration # 90     ecut=    80.00 Ry     beta= 0.10
     Davidson diagonalization with overlap
     ethr =  5.08E-09,  avg # of iterations =  1.0

     negative rho (up, down):  1.816E-03 0.000E+00

     total cpu time spent up to now is      356.5 secs

     total energy              =    -675.01163699 Ry
     estimated scf accuracy    <       0.00001141 Ry

     iteration # 91     ecut=    80.00 Ry     beta= 0.10
     Davidson diagonalization with overlap
     ethr =  5.08E-09,  avg # of iterations =  2.0

     negative rho (up, down):  1.654E-03 0.000E+00

     total cpu time spent up to now is      360.3 secs

     total energy              =    -675.01163339 Ry
     estimated scf accuracy    <       0.00001519 Ry

     iteration # 92     ecut=    80.00 Ry     beta= 0.10
     Davidson diagonalization with overlap
     ethr =  5.08E-09,  avg # of iterations =  2.0

     negative rho (up, down):  1.367E-03 0.000E+00

     total cpu time spent up to now is      364.2 secs

     total energy              =    -675.01163847 Ry
     estimated scf accuracy    <       0.00001118 Ry

     iteration # 93     ecut=    80.00 Ry     beta= 0.10
     Davidson diagonalization with overlap
     ethr =  5.08E-09,  avg # of iterations =  3.2

     negative rho (up, down):  1.620E-03 0.000E+00

     total cpu time spent up to now is      368.3 secs

     total energy              =    -675.01163048 Ry
     estimated scf accuracy    <       0.00001881 Ry

     iteration # 94     ecut=    80.00 Ry     beta= 0.10
     Davidson diagonalization with overlap
     ethr =  5.08E-09,  avg # of iterations =  4.8

     negative rho (up, down):  1.646E-03 0.000E+00

     total cpu time spent up to now is      373.4 secs

     total energy              =    -675.01164307 Ry
     estimated scf accuracy    <       0.00001824 Ry

     iteration # 95     ecut=    80.00 Ry     beta= 0.10
     Davidson diagonalization with overlap
     ethr =  5.08E-09,  avg # of iterations =  4.8

     negative rho (up, down):  1.618E-03 0.000E+00

     total cpu time spent up to now is      378.2 secs

     total energy              =    -675.01163464 Ry
     estimated scf accuracy    <       0.00000995 Ry

     iteration # 96     ecut=    80.00 Ry     beta= 0.10
     Davidson diagonalization with overlap
     ethr =  5.08E-09,  avg # of iterations =  1.0

     negative rho (up, down):  1.854E-03 0.000E+00

     total cpu time spent up to now is      381.7 secs

     total energy              =    -675.01163791 Ry
     estimated scf accuracy    <       0.00001057 Ry

     iteration # 97     ecut=    80.00 Ry     beta= 0.10
     Davidson diagonalization with overlap
     ethr =  5.08E-09,  avg # of iterations =  2.0

     negative rho (up, down):  1.587E-03 0.000E+00

     total cpu time spent up to now is      385.6 secs

     total energy              =    -675.01163467 Ry
     estimated scf accuracy    <       0.00002037 Ry

     iteration # 98     ecut=    80.00 Ry     beta= 0.10
     Davidson diagonalization with overlap
     ethr =  5.08E-09,  avg # of iterations =  2.0

     negative rho (up, down):  1.576E-03 0.000E+00

     total cpu time spent up to now is      389.5 secs

     total energy              =    -675.01163310 Ry
     estimated scf accuracy    <       0.00001149 Ry

     iteration # 99     ecut=    80.00 Ry     beta= 0.10
     Davidson diagonalization with overlap
     ethr =  5.08E-09,  avg # of iterations =  2.0

     negative rho (up, down):  1.810E-03 0.000E+00

     total cpu time spent up to now is      393.3 secs

     total energy              =    -675.01163367 Ry
     estimated scf accuracy    <       0.00001057 Ry

     iteration #100     ecut=    80.00 Ry     beta= 0.10
     Davidson diagonalization with overlap
     ethr =  5.08E-09,  avg # of iterations =  1.0

     negative rho (up, down):  1.712E-03 0.000E+00

     total cpu time spent up to now is      396.8 secs

     total energy              =    -675.01163349 Ry
     estimated scf accuracy    <       0.00000982 Ry

     iteration #101     ecut=    80.00 Ry     beta= 0.10
     Davidson diagonalization with overlap
     ethr =  5.08E-09,  avg # of iterations =  1.0

     negative rho (up, down):  1.647E-03 0.000E+00

     total cpu time spent up to now is      400.3 secs

     total energy              =    -675.01163422 Ry
     estimated scf accuracy    <       0.00000961 Ry

     iteration #102     ecut=    80.00 Ry     beta= 0.10
     Davidson diagonalization with overlap
     ethr =  5.08E-09,  avg # of iterations =  1.0

     negative rho (up, down):  1.555E-03 0.000E+00

     total cpu time spent up to now is      403.7 secs

     total energy              =    -675.01163338 Ry
     estimated scf accuracy    <       0.00000948 Ry

     iteration #103     ecut=    80.00 Ry     beta= 0.10
     Davidson diagonalization with overlap
     ethr =  5.08E-09,  avg # of iterations =  1.0

     negative rho (up, down):  1.533E-03 0.000E+00

     total cpu time spent up to now is      407.2 secs

     total energy              =    -675.01162926 Ry
     estimated scf accuracy    <       0.00001189 Ry

     iteration #104     ecut=    80.00 Ry     beta= 0.10
     Davidson diagonalization with overlap
     ethr =  5.08E-09,  avg # of iterations =  4.8

     negative rho (up, down):  1.593E-03 0.000E+00

     total cpu time spent up to now is      412.1 secs

     total energy              =    -675.01165073 Ry
     estimated scf accuracy    <       0.00002733 Ry

     iteration #105     ecut=    80.00 Ry     beta= 0.10
     Davidson diagonalization with overlap
     ethr =  5.08E-09,  avg # of iterations =  4.8

     negative rho (up, down):  1.741E-03 0.000E+00

     total cpu time spent up to now is      417.2 secs

     total energy              =    -675.01163261 Ry
     estimated scf accuracy    <       0.00001412 Ry

     iteration #106     ecut=    80.00 Ry     beta= 0.10
     Davidson diagonalization with overlap
     ethr =  5.08E-09,  avg # of iterations =  3.0

     negative rho (up, down):  1.688E-03 0.000E+00

     total cpu time spent up to now is      421.3 secs

     total energy              =    -675.01163718 Ry
     estimated scf accuracy    <       0.00001132 Ry

     iteration #107     ecut=    80.00 Ry     beta= 0.10
     Davidson diagonalization with overlap
     ethr =  5.08E-09,  avg # of iterations =  3.2

     negative rho (up, down):  1.593E-03 0.000E+00

     total cpu time spent up to now is      425.4 secs

     total energy              =    -675.01164104 Ry
     estimated scf accuracy    <       0.00001372 Ry

     iteration #108     ecut=    80.00 Ry     beta= 0.10
     Davidson diagonalization with overlap
     ethr =  5.08E-09,  avg # of iterations =  3.6

     negative rho (up, down):  1.757E-03 0.000E+00

     total cpu time spent up to now is      429.6 secs

     total energy              =    -675.01163264 Ry
     estimated scf accuracy    <       0.00003587 Ry

     iteration #109     ecut=    80.00 Ry     beta= 0.10
     Davidson diagonalization with overlap
     ethr =  5.08E-09,  avg # of iterations =  4.0

     negative rho (up, down):  1.608E-03 0.000E+00

     total cpu time spent up to now is      434.1 secs

     total energy              =    -675.01163368 Ry
     estimated scf accuracy    <       0.00000998 Ry

     iteration #110     ecut=    80.00 Ry     beta= 0.10
     Davidson diagonalization with overlap
     ethr =  5.08E-09,  avg # of iterations =  1.0

     negative rho (up, down):  1.529E-03 0.000E+00

     total cpu time spent up to now is      437.6 secs

     total energy              =    -675.01163333 Ry
     estimated scf accuracy    <       0.00000956 Ry

     iteration #111     ecut=    80.00 Ry     beta= 0.10
     Davidson diagonalization with overlap
     ethr =  5.08E-09,  avg # of iterations =  1.0

     negative rho (up, down):  1.547E-03 0.000E+00

     total cpu time spent up to now is      441.0 secs

     total energy              =    -675.01163260 Ry
     estimated scf accuracy    <       0.00000965 Ry

     iteration #112     ecut=    80.00 Ry     beta= 0.10
     Davidson diagonalization with overlap
     ethr =  5.08E-09,  avg # of iterations =  1.0

     negative rho (up, down):  1.594E-03 0.000E+00

     total cpu time spent up to now is      444.5 secs

     total energy              =    -675.01163326 Ry
     estimated scf accuracy    <       0.00000982 Ry

     iteration #113     ecut=    80.00 Ry     beta= 0.10
     Davidson diagonalization with overlap
     ethr =  5.08E-09,  avg # of iterations =  1.0

     negative rho (up, down):  1.622E-03 0.000E+00

     total cpu time spent up to now is      448.0 secs

     total energy              =    -675.01163203 Ry
     estimated scf accuracy    <       0.00000916 Ry

     iteration #114     ecut=    80.00 Ry     beta= 0.10
     Davidson diagonalization with overlap
     ethr =  5.08E-09,  avg # of iterations =  2.0

     negative rho (up, down):  1.609E-03 0.000E+00

     total cpu time spent up to now is      451.7 secs

     total energy              =    -675.01163193 Ry
     estimated scf accuracy    <       0.00000914 Ry

     iteration #115     ecut=    80.00 Ry     beta= 0.10
     Davidson diagonalization with overlap
     ethr =  5.08E-09,  avg # of iterations =  1.0

     negative rho (up, down):  1.514E-03 0.000E+00

     total cpu time spent up to now is      455.2 secs

     total energy              =    -675.01163194 Ry
     estimated scf accuracy    <       0.00000930 Ry

     iteration #116     ecut=    80.00 Ry     beta= 0.10
     Davidson diagonalization with overlap
     ethr =  5.08E-09,  avg # of iterations =  1.0

     negative rho (up, down):  1.619E-03 0.000E+00

     total cpu time spent up to now is      458.7 secs

     total energy              =    -675.01163248 Ry
     estimated scf accuracy    <       0.00000894 Ry

     iteration #117     ecut=    80.00 Ry     beta= 0.10
     Davidson diagonalization with overlap
     ethr =  5.08E-09,  avg # of iterations =  1.0

     negative rho (up, down):  1.854E-03 0.000E+00

     total cpu time spent up to now is      462.2 secs

     total energy              =    -675.01164575 Ry
     estimated scf accuracy    <       0.00000847 Ry

     iteration #118     ecut=    80.00 Ry     beta= 0.10
     Davidson diagonalization with overlap
     ethr =  5.08E-09,  avg # of iterations =  4.6

     negative rho (up, down):  1.618E-03 0.000E+00

     total cpu time spent up to now is      467.1 secs

     total energy              =    -675.01162992 Ry
     estimated scf accuracy    <       0.00004490 Ry

     iteration #119     ecut=    80.00 Ry     beta= 0.10
     Davidson diagonalization with overlap
     ethr =  5.08E-09,  avg # of iterations =  4.8

     negative rho (up, down):  1.556E-03 0.000E+00

     total cpu time spent up to now is      472.1 secs

     total energy              =    -675.01163391 Ry
     estimated scf accuracy    <       0.00001082 Ry

     iteration #120     ecut=    80.00 Ry     beta= 0.10
     Davidson diagonalization with overlap
     ethr =  5.08E-09,  avg # of iterations =  2.0

     negative rho (up, down):  1.723E-03 0.000E+00

     total cpu time spent up to now is      475.9 secs

     total energy              =    -675.01163223 Ry
     estimated scf accuracy    <       0.00000817 Ry

     iteration #121     ecut=    80.00 Ry     beta= 0.10
     Davidson diagonalization with overlap
     ethr =  5.08E-09,  avg # of iterations =  1.0

     negative rho (up, down):  1.545E-03 0.000E+00

     total cpu time spent up to now is      479.4 secs

     total energy              =    -675.01163074 Ry
     estimated scf accuracy    <       0.00000944 Ry

     iteration #122     ecut=    80.00 Ry     beta= 0.10
     Davidson diagonalization with overlap
     ethr =  5.08E-09,  avg # of iterations =  2.0

     negative rho (up, down):  1.614E-03 0.000E+00

     total cpu time spent up to now is      483.2 secs

     total energy              =    -675.01162976 Ry
     estimated scf accuracy    <       0.00001074 Ry

     iteration #123     ecut=    80.00 Ry     beta= 0.10
     Davidson diagonalization with overlap
     ethr =  5.08E-09,  avg # of iterations =  2.0

     negative rho (up, down):  1.575E-03 0.000E+00

     total cpu time spent up to now is      487.0 secs

     total energy              =    -675.01163460 Ry
     estimated scf accuracy    <       0.00001203 Ry

     iteration #124     ecut=    80.00 Ry     beta= 0.10
     Davidson diagonalization with overlap
     ethr =  5.08E-09,  avg # of iterations =  2.8

     negative rho (up, down):  1.625E-03 0.000E+00

     total cpu time spent up to now is      491.0 secs

     total energy              =    -675.01163231 Ry
     estimated scf accuracy    <       0.00000959 Ry

     iteration #125     ecut=    80.00 Ry     beta= 0.10
     Davidson diagonalization with overlap
     ethr =  5.08E-09,  avg # of iterations =  1.0

     negative rho (up, down):  1.496E-03 0.000E+00

     total cpu time spent up to now is      494.5 secs

     total energy              =    -675.01163223 Ry
     estimated scf accuracy    <       0.00000986 Ry

     iteration #126     ecut=    80.00 Ry     beta= 0.10
     Davidson diagonalization with overlap
     ethr =  5.08E-09,  avg # of iterations =  1.0

     negative rho (up, down):  1.565E-03 0.000E+00

     total cpu time spent up to now is      497.9 secs

     total energy              =    -675.01163323 Ry
     estimated scf accuracy    <       0.00000950 Ry

     iteration #127     ecut=    80.00 Ry     beta= 0.10
     Davidson diagonalization with overlap
     ethr =  5.08E-09,  avg # of iterations =  1.0

     negative rho (up, down):  1.497E-03 0.000E+00

     total cpu time spent up to now is      501.4 secs

     total energy              =    -675.01165138 Ry
     estimated scf accuracy    <       0.00000889 Ry

     iteration #128     ecut=    80.00 Ry     beta= 0.10
     Davidson diagonalization with overlap
     ethr =  5.08E-09,  avg # of iterations =  4.8

     negative rho (up, down):  1.538E-03 0.000E+00

     total cpu time spent up to now is      506.5 secs

     total energy              =    -675.01162585 Ry
     estimated scf accuracy    <       0.00009765 Ry

     iteration #129     ecut=    80.00 Ry     beta= 0.10
     Davidson diagonalization with overlap
     ethr =  5.08E-09,  avg # of iterations =  4.8

     negative rho (up, down):  1.654E-03 0.000E+00

     total cpu time spent up to now is      511.6 secs

     total energy              =    -675.01163033 Ry
     estimated scf accuracy    <       0.00000991 Ry

     iteration #130     ecut=    80.00 Ry     beta= 0.10
     Davidson diagonalization with overlap
     ethr =  5.08E-09,  avg # of iterations =  2.4

     negative rho (up, down):  1.609E-03 0.000E+00

     total cpu time spent up to now is      515.5 secs

     total energy              =    -675.01163495 Ry
     estimated scf accuracy    <       0.00001508 Ry

     iteration #131     ecut=    80.00 Ry     beta= 0.10
     Davidson diagonalization with overlap
     ethr =  5.08E-09,  avg # of iterations =  2.4

     negative rho (up, down):  1.685E-03 0.000E+00

     total cpu time spent up to now is      519.4 secs

     total energy              =    -675.01163364 Ry
     estimated scf accuracy    <       0.00000856 Ry

     iteration #132     ecut=    80.00 Ry     beta= 0.10
     Davidson diagonalization with overlap
     ethr =  5.08E-09,  avg # of iterations =  1.0

     negative rho (up, down):  1.641E-03 0.000E+00

     total cpu time spent up to now is      522.9 secs

     total energy              =    -675.01163390 Ry
     estimated scf accuracy    <       0.00000907 Ry

     iteration #133     ecut=    80.00 Ry     beta= 0.10
     Davidson diagonalization with overlap
     ethr =  5.08E-09,  avg # of iterations =  1.0

     negative rho (up, down):  1.580E-03 0.000E+00

     total cpu time spent up to now is      526.4 secs

     total energy              =    -675.01163404 Ry
     estimated scf accuracy    <       0.00000917 Ry

     iteration #134     ecut=    80.00 Ry     beta= 0.10
     Davidson diagonalization with overlap
     ethr =  5.08E-09,  avg # of iterations =  1.0

     negative rho (up, down):  1.572E-03 0.000E+00

     total cpu time spent up to now is      529.9 secs

     total energy              =    -675.01163377 Ry
     estimated scf accuracy    <       0.00000896 Ry

     iteration #135     ecut=    80.00 Ry     beta= 0.10
     Davidson diagonalization with overlap
     ethr =  5.08E-09,  avg # of iterations =  1.0

     negative rho (up, down):  1.566E-03 0.000E+00

     total cpu time spent up to now is      533.4 secs

     total energy              =    -675.01163349 Ry
     estimated scf accuracy    <       0.00000890 Ry

     iteration #136     ecut=    80.00 Ry     beta= 0.10
     Davidson diagonalization with overlap
     ethr =  5.08E-09,  avg # of iterations =  1.0

     negative rho (up, down):  1.586E-03 0.000E+00

     total cpu time spent up to now is      536.9 secs

     total energy              =    -675.01163586 Ry
     estimated scf accuracy    <       0.00000872 Ry

     iteration #137     ecut=    80.00 Ry     beta= 0.10
     Davidson diagonalization with overlap
     ethr =  5.08E-09,  avg # of iterations =  2.0

     negative rho (up, down):  1.502E-03 0.000E+00

     total cpu time spent up to now is      540.7 secs

     total energy              =    -675.01164266 Ry
     estimated scf accuracy    <       0.00001135 Ry

     iteration #138     ecut=    80.00 Ry     beta= 0.10
     Davidson diagonalization with overlap
     ethr =  5.08E-09,  avg # of iterations =  4.2

     negative rho (up, down):  1.591E-03 0.000E+00

     total cpu time spent up to now is      545.1 secs

     total energy              =    -675.01163541 Ry
     estimated scf accuracy    <       0.00003860 Ry

     iteration #139     ecut=    80.00 Ry     beta= 0.10
     Davidson diagonalization with overlap
     ethr =  5.08E-09,  avg # of iterations =  3.8

     negative rho (up, down):  1.624E-03 0.000E+00

     total cpu time spent up to now is      549.4 secs

     total energy              =    -675.01163152 Ry
     estimated scf accuracy    <       0.00001352 Ry

     iteration #140     ecut=    80.00 Ry     beta= 0.10
     Davidson diagonalization with overlap
     ethr =  5.08E-09,  avg # of iterations =  4.8

     negative rho (up, down):  1.583E-03 0.000E+00

     total cpu time spent up to now is      554.4 secs

     total energy              =    -675.01164442 Ry
     estimated scf accuracy    <       0.00002071 Ry

     iteration #141     ecut=    80.00 Ry     beta= 0.10
     Davidson diagonalization with overlap
     ethr =  5.08E-09,  avg # of iterations =  4.8

     negative rho (up, down):  1.552E-03 0.000E+00

     total cpu time spent up to now is      559.2 secs

     total energy              =    -675.01163711 Ry
     estimated scf accuracy    <       0.00001207 Ry

     iteration #142     ecut=    80.00 Ry     beta= 0.10
     Davidson diagonalization with overlap
     ethr =  5.08E-09,  avg # of iterations =  2.0

     negative rho (up, down):  1.562E-03 0.000E+00

     total cpu time spent up to now is      562.9 secs

     total energy              =    -675.01163750 Ry
     estimated scf accuracy    <       0.00001536 Ry

     iteration #143     ecut=    80.00 Ry     beta= 0.10
     Davidson diagonalization with overlap
     ethr =  5.08E-09,  avg # of iterations =  1.0

     negative rho (up, down):  1.561E-03 0.000E+00

     total cpu time spent up to now is      566.4 secs

     total energy              =    -675.01163787 Ry
     estimated scf accuracy    <       0.00001679 Ry

     iteration #144     ecut=    80.00 Ry     beta= 0.10
     Davidson diagonalization with overlap
     ethr =  5.08E-09,  avg # of iterations =  1.0

     negative rho (up, down):  1.561E-03 0.000E+00

     total cpu time spent up to now is      569.9 secs

     total energy              =    -675.01163778 Ry
     estimated scf accuracy    <       0.00001821 Ry

     iteration #145     ecut=    80.00 Ry     beta= 0.10
     Davidson diagonalization with overlap
     ethr =  5.08E-09,  avg # of iterations =  1.0

     negative rho (up, down):  1.560E-03 0.000E+00

     total cpu time spent up to now is      573.4 secs

     total energy              =    -675.01163950 Ry
     estimated scf accuracy    <       0.00001811 Ry

     iteration #146     ecut=    80.00 Ry     beta= 0.10
     Davidson diagonalization with overlap
     ethr =  5.08E-09,  avg # of iterations =  2.0

     negative rho (up, down):  1.537E-03 0.000E+00

     total cpu time spent up to now is      577.1 secs

     total energy              =    -675.01163835 Ry
     estimated scf accuracy    <       0.00002506 Ry

     iteration #147     ecut=    80.00 Ry     beta= 0.10
     Davidson diagonalization with overlap
     ethr =  5.08E-09,  avg # of iterations =  1.0

     negative rho (up, down):  1.521E-03 0.000E+00

     total cpu time spent up to now is      580.6 secs

     total energy              =    -675.01163344 Ry
     estimated scf accuracy    <       0.00002077 Ry

     iteration #148     ecut=    80.00 Ry     beta= 0.10
     Davidson diagonalization with overlap
     ethr =  5.08E-09,  avg # of iterations =  3.8

     negative rho (up, down):  1.561E-03 0.000E+00

     total cpu time spent up to now is      584.9 secs

     total energy              =    -675.01163750 Ry
     estimated scf accuracy    <       0.00000859 Ry

     iteration #149     ecut=    80.00 Ry     beta= 0.10
     Davidson diagonalization with overlap
     ethr =  5.08E-09,  avg # of iterations =  2.8

     negative rho (up, down):  1.607E-03 0.000E+00

     total cpu time spent up to now is      588.9 secs

     total energy              =    -675.01163323 Ry
     estimated scf accuracy    <       0.00001457 Ry

     iteration #150     ecut=    80.00 Ry     beta= 0.10
     Davidson diagonalization with overlap
     ethr =  5.08E-09,  avg # of iterations =  2.8

     negative rho (up, down):  1.601E-03 0.000E+00

     total cpu time spent up to now is      593.0 secs

     total energy              =    -675.01163711 Ry
     estimated scf accuracy    <       0.00000943 Ry

     iteration #151     ecut=    80.00 Ry     beta= 0.10
     Davidson diagonalization with overlap
     ethr =  5.08E-09,  avg # of iterations =  2.0

     negative rho (up, down):  1.580E-03 0.000E+00

     total cpu time spent up to now is      596.9 secs

     total energy              =    -675.01163694 Ry
     estimated scf accuracy    <       0.00001242 Ry

     iteration #152     ecut=    80.00 Ry     beta= 0.10
     Davidson diagonalization with overlap
     ethr =  5.08E-09,  avg # of iterations =  1.0

     negative rho (up, down):  1.597E-03 0.000E+00

     total cpu time spent up to now is      600.4 secs

     total energy              =    -675.01163274 Ry
     estimated scf accuracy    <       0.00001416 Ry

     iteration #153     ecut=    80.00 Ry     beta= 0.10
     Davidson diagonalization with overlap
     ethr =  5.08E-09,  avg # of iterations =  3.8

     negative rho (up, down):  1.557E-03 0.000E+00

     total cpu time spent up to now is      604.7 secs

     total energy              =    -675.01163042 Ry
     estimated scf accuracy    <       0.00000942 Ry

     iteration #154     ecut=    80.00 Ry     beta= 0.10
     Davidson diagonalization with overlap
     ethr =  5.08E-09,  avg # of iterations =  2.0

     negative rho (up, down):  1.553E-03 0.000E+00

     total cpu time spent up to now is      608.5 secs

     total energy              =    -675.01163653 Ry
     estimated scf accuracy    <       0.00001239 Ry

     iteration #155     ecut=    80.00 Ry     beta= 0.10
     Davidson diagonalization with overlap
     ethr =  5.08E-09,  avg # of iterations =  3.0

     negative rho (up, down):  1.561E-03 0.000E+00

     total cpu time spent up to now is      612.6 secs

     total energy              =    -675.01163439 Ry
     estimated scf accuracy    <       0.00000922 Ry

     iteration #156     ecut=    80.00 Ry     beta= 0.10
     Davidson diagonalization with overlap
     ethr =  5.08E-09,  avg # of iterations =  1.0

     negative rho (up, down):  1.592E-03 0.000E+00

     total cpu time spent up to now is      616.1 secs

     total energy              =    -675.01163124 Ry
     estimated scf accuracy    <       0.00000972 Ry

     iteration #157     ecut=    80.00 Ry     beta= 0.10
     Davidson diagonalization with overlap
     ethr =  5.08E-09,  avg # of iterations =  3.8

     negative rho (up, down):  1.592E-03 0.000E+00

     total cpu time spent up to now is      620.5 secs

     total energy              =    -675.01163648 Ry
     estimated scf accuracy    <       0.00001251 Ry

     iteration #158     ecut=    80.00 Ry     beta= 0.10
     Davidson diagonalization with overlap
     ethr =  5.08E-09,  avg # of iterations =  3.8

     negative rho (up, down):  1.497E-03 0.000E+00

     total cpu time spent up to now is      624.8 secs

     total energy              =    -675.01163146 Ry
     estimated scf accuracy    <       0.00001079 Ry

     iteration #159     ecut=    80.00 Ry     beta= 0.10
     Davidson diagonalization with overlap
     ethr =  5.08E-09,  avg # of iterations =  4.8

     negative rho (up, down):  1.564E-03 0.000E+00

     total cpu time spent up to now is      629.6 secs

     total energy              =    -675.01164055 Ry
     estimated scf accuracy    <       0.00002719 Ry

     iteration #160     ecut=    80.00 Ry     beta= 0.10
     Davidson diagonalization with overlap
     ethr =  5.08E-09,  avg # of iterations =  4.8

     negative rho (up, down):  1.618E-03 0.000E+00

     total cpu time spent up to now is      634.3 secs

     total energy              =    -675.01163345 Ry
     estimated scf accuracy    <       0.00000905 Ry

     iteration #161     ecut=    80.00 Ry     beta= 0.10
     Davidson diagonalization with overlap
     ethr =  5.08E-09,  avg # of iterations =  1.0

     negative rho (up, down):  1.476E-03 0.000E+00

     total cpu time spent up to now is      637.8 secs

     total energy              =    -675.01164082 Ry
     estimated scf accuracy    <       0.00000957 Ry

     iteration #162     ecut=    80.00 Ry     beta= 0.10
     Davidson diagonalization with overlap
     ethr =  5.08E-09,  avg # of iterations =  4.0

     negative rho (up, down):  1.474E-03 0.000E+00

     total cpu time spent up to now is      642.3 secs

     total energy              =    -675.01163667 Ry
     estimated scf accuracy    <       0.00002782 Ry

     iteration #163     ecut=    80.00 Ry     beta= 0.10
     Davidson diagonalization with overlap
     ethr =  5.08E-09,  avg # of iterations =  2.0

     negative rho (up, down):  1.458E-03 0.000E+00

     total cpu time spent up to now is      646.1 secs

     total energy              =    -675.01163726 Ry
     estimated scf accuracy    <       0.00001620 Ry

     iteration #164     ecut=    80.00 Ry     beta= 0.10
     Davidson diagonalization with overlap
     ethr =  5.08E-09,  avg # of iterations =  1.0

     negative rho (up, down):  1.482E-03 0.000E+00

     total cpu time spent up to now is      649.6 secs

     total energy              =    -675.01163763 Ry
     estimated scf accuracy    <       0.00001677 Ry

     iteration #165     ecut=    80.00 Ry     beta= 0.10
     Davidson diagonalization with overlap
     ethr =  5.08E-09,  avg # of iterations =  1.0

     negative rho (up, down):  1.457E-03 0.000E+00

     total cpu time spent up to now is      653.1 secs

     total energy              =    -675.01163582 Ry
     estimated scf accuracy    <       0.00001766 Ry

     iteration #166     ecut=    80.00 Ry     beta= 0.10
     Davidson diagonalization with overlap
     ethr =  5.08E-09,  avg # of iterations =  2.0

     negative rho (up, down):  1.441E-03 0.000E+00

     total cpu time spent up to now is      656.9 secs

     total energy              =    -675.01163435 Ry
     estimated scf accuracy    <       0.00001315 Ry

     iteration #167     ecut=    80.00 Ry     beta= 0.10
     Davidson diagonalization with overlap
     ethr =  5.08E-09,  avg # of iterations =  2.0

     negative rho (up, down):  1.448E-03 0.000E+00

     total cpu time spent up to now is      660.7 secs

     total energy              =    -675.01163282 Ry
     estimated scf accuracy    <       0.00001034 Ry

     iteration #168     ecut=    80.00 Ry     beta= 0.10
     Davidson diagonalization with overlap
     ethr =  5.08E-09,  avg # of iterations =  2.4

     negative rho (up, down):  1.409E-03 0.000E+00

     total cpu time spent up to now is      664.6 secs

     total energy              =    -675.01162991 Ry
     estimated scf accuracy    <       0.00000961 Ry

     iteration #169     ecut=    80.00 Ry     beta= 0.10
     Davidson diagonalization with overlap
     ethr =  5.08E-09,  avg # of iterations =  4.2

     negative rho (up, down):  1.455E-03 0.000E+00

     total cpu time spent up to now is      668.9 secs

     total energy              =    -675.01163749 Ry
     estimated scf accuracy    <       0.00001614 Ry

     iteration #170     ecut=    80.00 Ry     beta= 0.10
     Davidson diagonalization with overlap
     ethr =  5.08E-09,  avg # of iterations =  4.0

     negative rho (up, down):  1.448E-03 0.000E+00

     total cpu time spent up to now is      673.4 secs

     total energy              =    -675.01163492 Ry
     estimated scf accuracy    <       0.00000933 Ry

     iteration #171     ecut=    80.00 Ry     beta= 0.10
     Davidson diagonalization with overlap
     ethr =  5.08E-09,  avg # of iterations =  1.8

     negative rho (up, down):  1.460E-03 0.000E+00

     total cpu time spent up to now is      677.1 secs

     total energy              =    -675.01163479 Ry
     estimated scf accuracy    <       0.00001028 Ry

     iteration #172     ecut=    80.00 Ry     beta= 0.10
     Davidson diagonalization with overlap
     ethr =  5.08E-09,  avg # of iterations =  1.0

     negative rho (up, down):  1.441E-03 0.000E+00

     total cpu time spent up to now is      680.6 secs

     total energy              =    -675.01163507 Ry
     estimated scf accuracy    <       0.00001037 Ry

     iteration #173     ecut=    80.00 Ry     beta= 0.10
     Davidson diagonalization with overlap
     ethr =  5.08E-09,  avg # of iterations =  1.0

     negative rho (up, down):  1.402E-03 0.000E+00

     total cpu time spent up to now is      684.0 secs

     total energy              =    -675.01163341 Ry
     estimated scf accuracy    <       0.00001086 Ry

     iteration #174     ecut=    80.00 Ry     beta= 0.10
     Davidson diagonalization with overlap
     ethr =  5.08E-09,  avg # of iterations =  2.0

     negative rho (up, down):  1.499E-03 0.000E+00

     total cpu time spent up to now is      687.9 secs

     total energy              =    -675.01163356 Ry
     estimated scf accuracy    <       0.00001003 Ry

     iteration #175     ecut=    80.00 Ry     beta= 0.10
     Davidson diagonalization with overlap
     ethr =  5.08E-09,  avg # of iterations =  1.0

     negative rho (up, down):  1.633E-03 0.000E+00

     total cpu time spent up to now is      691.4 secs

     total energy              =    -675.01164654 Ry
     estimated scf accuracy    <       0.00000951 Ry

     iteration #176     ecut=    80.00 Ry     beta= 0.10
     Davidson diagonalization with overlap
     ethr =  5.08E-09,  avg # of iterations =  4.8

     negative rho (up, down):  1.443E-03 0.000E+00

     total cpu time spent up to now is      696.3 secs

     total energy              =    -675.01162793 Ry
     estimated scf accuracy    <       0.00006395 Ry

     iteration #177     ecut=    80.00 Ry     beta= 0.10
     Davidson diagonalization with overlap
     ethr =  5.08E-09,  avg # of iterations =  4.8

     negative rho (up, down):  1.437E-03 0.000E+00

     total cpu time spent up to now is      701.3 secs

     total energy              =    -675.01163171 Ry
     estimated scf accuracy    <       0.00001092 Ry

     iteration #178     ecut=    80.00 Ry     beta= 0.10
     Davidson diagonalization with overlap
     ethr =  5.08E-09,  avg # of iterations =  1.0

     negative rho (up, down):  1.419E-03 0.000E+00

     total cpu time spent up to now is      704.8 secs

     total energy              =    -675.01162959 Ry
     estimated scf accuracy    <       0.00000970 Ry

     iteration #179     ecut=    80.00 Ry     beta= 0.10
     Davidson diagonalization with overlap
     ethr =  5.08E-09,  avg # of iterations =  2.0

     negative rho (up, down):  1.433E-03 0.000E+00

     total cpu time spent up to now is      708.6 secs

     total energy              =    -675.01162989 Ry
     estimated scf accuracy    <       0.00001591 Ry

     iteration #180     ecut=    80.00 Ry     beta= 0.10
     Davidson diagonalization with overlap
     ethr =  5.08E-09,  avg # of iterations =  1.0

     negative rho (up, down):  1.416E-03 0.000E+00

     total cpu time spent up to now is      712.1 secs

     total energy              =    -675.01162739 Ry
     estimated scf accuracy    <       0.00001289 Ry

     iteration #181     ecut=    80.00 Ry     beta= 0.10
     Davidson diagonalization with overlap
     ethr =  5.08E-09,  avg # of iterations =  2.0

     negative rho (up, down):  1.417E-03 0.000E+00

     total cpu time spent up to now is      716.0 secs

     total energy              =    -675.01162795 Ry
     estimated scf accuracy    <       0.00002346 Ry

     iteration #182     ecut=    80.00 Ry     beta= 0.10
     Davidson diagonalization with overlap
     ethr =  5.08E-09,  avg # of iterations =  1.0

     negative rho (up, down):  1.418E-03 0.000E+00

     total cpu time spent up to now is      719.4 secs

     total energy              =    -675.01162775 Ry
     estimated scf accuracy    <       0.00001794 Ry

     iteration #183     ecut=    80.00 Ry     beta= 0.10
     Davidson diagonalization with overlap
     ethr =  5.08E-09,  avg # of iterations =  1.0

     negative rho (up, down):  1.420E-03 0.000E+00

     total cpu time spent up to now is      722.9 secs

     total energy              =    -675.01162611 Ry
     estimated scf accuracy    <       0.00001818 Ry

     iteration #184     ecut=    80.00 Ry     beta= 0.10
     Davidson diagonalization with overlap
     ethr =  5.08E-09,  avg # of iterations =  2.0

     negative rho (up, down):  1.427E-03 0.000E+00

     total cpu time spent up to now is      726.7 secs

     total energy              =    -675.01162583 Ry
     estimated scf accuracy    <       0.00002475 Ry

     iteration #185     ecut=    80.00 Ry     beta= 0.10
     Davidson diagonalization with overlap
     ethr =  5.08E-09,  avg # of iterations =  1.0

     negative rho (up, down):  1.498E-03 0.000E+00

     total cpu time spent up to now is      730.2 secs

     total energy              =    -675.01164716 Ry
     estimated scf accuracy    <       0.00002455 Ry

     iteration #186     ecut=    80.00 Ry     beta= 0.10
     Davidson diagonalization with overlap
     ethr =  5.08E-09,  avg # of iterations =  4.8

     negative rho (up, down):  1.410E-03 0.000E+00

     total cpu time spent up to now is      735.1 secs

     total energy              =    -675.01163255 Ry
     estimated scf accuracy    <       0.00001481 Ry

     iteration #187     ecut=    80.00 Ry     beta= 0.10
     Davidson diagonalization with overlap
     ethr =  5.08E-09,  avg # of iterations =  4.8

     negative rho (up, down):  1.427E-03 0.000E+00

     total cpu time spent up to now is      740.2 secs

     total energy              =    -675.01162088 Ry
     estimated scf accuracy    <       0.00002997 Ry

     iteration #188     ecut=    80.00 Ry     beta= 0.10
     Davidson diagonalization with overlap
     ethr =  5.08E-09,  avg # of iterations =  2.0

     negative rho (up, down):  1.424E-03 0.000E+00

     total cpu time spent up to now is      744.0 secs

     total energy              =    -675.01165623 Ry
     estimated scf accuracy    <       0.00004375 Ry

     iteration #189     ecut=    80.00 Ry     beta= 0.10
     Davidson diagonalization with overlap
     ethr =  5.08E-09,  avg # of iterations =  4.8

     negative rho (up, down):  1.478E-03 0.000E+00

     total cpu time spent up to now is      749.2 secs

     total energy              =    -675.01163700 Ry
     estimated scf accuracy    <       0.00001239 Ry

     iteration #190     ecut=    80.00 Ry     beta= 0.10
     Davidson diagonalization with overlap
     ethr =  5.08E-09,  avg # of iterations =  2.0

     negative rho (up, down):  1.450E-03 0.000E+00

     total cpu time spent up to now is      752.9 secs

     total energy              =    -675.01163369 Ry
     estimated scf accuracy    <       0.00001646 Ry

     iteration #191     ecut=    80.00 Ry     beta= 0.10
     Davidson diagonalization with overlap
     ethr =  5.08E-09,  avg # of iterations =  2.2

     negative rho (up, down):  1.442E-03 0.000E+00

     total cpu time spent up to now is      756.8 secs

     total energy              =    -675.01163277 Ry
     estimated scf accuracy    <       0.00001115 Ry

     iteration #192     ecut=    80.00 Ry     beta= 0.10
     Davidson diagonalization with overlap
     ethr =  5.08E-09,  avg # of iterations =  1.0

     negative rho (up, down):  1.418E-03 0.000E+00

     total cpu time spent up to now is      760.3 secs

     total energy              =    -675.01163286 Ry
     estimated scf accuracy    <       0.00001070 Ry

     iteration #193     ecut=    80.00 Ry     beta= 0.10
     Davidson diagonalization with overlap
     ethr =  5.08E-09,  avg # of iterations =  1.0

     negative rho (up, down):  1.423E-03 0.000E+00

     total cpu time spent up to now is      763.8 secs

     total energy              =    -675.01163155 Ry
     estimated scf accuracy    <       0.00001064 Ry

     iteration #194     ecut=    80.00 Ry     beta= 0.10
     Davidson diagonalization with overlap
     ethr =  5.08E-09,  avg # of iterations =  2.0

     negative rho (up, down):  1.419E-03 0.000E+00

     total cpu time spent up to now is      767.6 secs

     total energy              =    -675.01162916 Ry
     estimated scf accuracy    <       0.00001161 Ry

     iteration #195     ecut=    80.00 Ry     beta= 0.10
     Davidson diagonalization with overlap
     ethr =  5.08E-09,  avg # of iterations =  3.6

     negative rho (up, down):  1.434E-03 0.000E+00

     total cpu time spent up to now is      771.7 secs

     total energy              =    -675.01163493 Ry
     estimated scf accuracy    <       0.00001699 Ry

     iteration #196     ecut=    80.00 Ry     beta= 0.10
     Davidson diagonalization with overlap
     ethr =  5.08E-09,  avg # of iterations =  3.8

     negative rho (up, down):  1.456E-03 0.000E+00

     total cpu time spent up to now is      776.0 secs

     total energy              =    -675.01163300 Ry
     estimated scf accuracy    <       0.00000929 Ry

     iteration #197     ecut=    80.00 Ry     beta= 0.10
     Davidson diagonalization with overlap
     ethr =  5.08E-09,  avg # of iterations =  1.0

     negative rho (up, down):  1.455E-03 0.000E+00

     total cpu time spent up to now is      779.5 secs

     total energy              =    -675.01164340 Ry
     estimated scf accuracy    <       0.00000934 Ry

     iteration #198     ecut=    80.00 Ry     beta= 0.10
     Davidson diagonalization with overlap
     ethr =  5.08E-09,  avg # of iterations =  4.8

     negative rho (up, down):  1.485E-03 0.000E+00

     total cpu time spent up to now is      784.2 secs

     total energy              =    -675.01163246 Ry
     estimated scf accuracy    <       0.00004076 Ry

     iteration #199     ecut=    80.00 Ry     beta= 0.10
     Davidson diagonalization with overlap
     ethr =  5.08E-09,  avg # of iterations =  4.2

     negative rho (up, down):  1.488E-03 0.000E+00

     total cpu time spent up to now is      788.8 secs

     total energy              =    -675.01163364 Ry
     estimated scf accuracy    <       0.00001034 Ry

     iteration #200     ecut=    80.00 Ry     beta= 0.10
     Davidson diagonalization with overlap
     ethr =  5.08E-09,  avg # of iterations =  1.0

     negative rho (up, down):  1.497E-03 0.000E+00

     total cpu time spent up to now is      792.2 secs

     total energy              =    -675.01163496 Ry
     estimated scf accuracy    <       0.00001036 Ry

     iteration #201     ecut=    80.00 Ry     beta= 0.10
     Davidson diagonalization with overlap
     ethr =  5.08E-09,  avg # of iterations =  2.0

     negative rho (up, down):  1.474E-03 0.000E+00

     total cpu time spent up to now is      796.0 secs

     total energy              =    -675.01163160 Ry
     estimated scf accuracy    <       0.00001146 Ry

     iteration #202     ecut=    80.00 Ry     beta= 0.10
     Davidson diagonalization with overlap
     ethr =  5.08E-09,  avg # of iterations =  3.8

     negative rho (up, down):  1.472E-03 0.000E+00

     total cpu time spent up to now is      800.4 secs

     total energy              =    -675.01163068 Ry
     estimated scf accuracy    <       0.00001436 Ry

     iteration #203     ecut=    80.00 Ry     beta= 0.10
     Davidson diagonalization with overlap
     ethr =  5.08E-09,  avg # of iterations =  1.0

     negative rho (up, down):  1.483E-03 0.000E+00

     total cpu time spent up to now is      803.9 secs

     total energy              =    -675.01163137 Ry
     estimated scf accuracy    <       0.00001182 Ry

     iteration #204     ecut=    80.00 Ry     beta= 0.10
     Davidson diagonalization with overlap
     ethr =  5.08E-09,  avg # of iterations =  1.0

     negative rho (up, down):  1.459E-03 0.000E+00

     total cpu time spent up to now is      807.4 secs

     total energy              =    -675.01162913 Ry
     estimated scf accuracy    <       0.00001045 Ry

     iteration #205     ecut=    80.00 Ry     beta= 0.10
     Davidson diagonalization with overlap
     ethr =  5.08E-09,  avg # of iterations =  2.0

     negative rho (up, down):  1.486E-03 0.000E+00

     total cpu time spent up to now is      811.3 secs

     total energy              =    -675.01163580 Ry
     estimated scf accuracy    <       0.00001879 Ry

     iteration #206     ecut=    80.00 Ry     beta= 0.10
     Davidson diagonalization with overlap
     ethr =  5.08E-09,  avg # of iterations =  3.0

     negative rho (up, down):  1.501E-03 0.000E+00

     total cpu time spent up to now is      815.4 secs

     total energy              =    -675.01163205 Ry
     estimated scf accuracy    <       0.00000927 Ry

     iteration #207     ecut=    80.00 Ry     beta= 0.10
     Davidson diagonalization with overlap
     ethr =  5.08E-09,  avg # of iterations =  1.0

     negative rho (up, down):  1.442E-03 0.000E+00

     total cpu time spent up to now is      818.9 secs

     total energy              =    -675.01163162 Ry
     estimated scf accuracy    <       0.00001050 Ry

     iteration #208     ecut=    80.00 Ry     beta= 0.10
     Davidson diagonalization with overlap
     ethr =  5.08E-09,  avg # of iterations =  1.0

     negative rho (up, down):  1.457E-03 0.000E+00

     total cpu time spent up to now is      822.4 secs

     total energy              =    -675.01163967 Ry
     estimated scf accuracy    <       0.00001118 Ry

     iteration #209     ecut=    80.00 Ry     beta= 0.10
     Davidson diagonalization with overlap
     ethr =  5.08E-09,  avg # of iterations =  4.2

     negative rho (up, down):  1.425E-03 0.000E+00

     total cpu time spent up to now is      826.9 secs

     total energy              =    -675.01163373 Ry
     estimated scf accuracy    <       0.00001870 Ry

     iteration #210     ecut=    80.00 Ry     beta= 0.10
     Davidson diagonalization with overlap
     ethr =  5.08E-09,  avg # of iterations =  3.0

     negative rho (up, down):  1.427E-03 0.000E+00

     total cpu time spent up to now is      831.0 secs

     total energy              =    -675.01163301 Ry
     estimated scf accuracy    <       0.00001091 Ry

     iteration #211     ecut=    80.00 Ry     beta= 0.10
     Davidson diagonalization with overlap
     ethr =  5.08E-09,  avg # of iterations =  1.0

     negative rho (up, down):  1.448E-03 0.000E+00

     total cpu time spent up to now is      834.5 secs

     total energy              =    -675.01163483 Ry
     estimated scf accuracy    <       0.00001063 Ry

     iteration #212     ecut=    80.00 Ry     beta= 0.10
     Davidson diagonalization with overlap
     ethr =  5.08E-09,  avg # of iterations =  2.0

     negative rho (up, down):  1.463E-03 0.000E+00

     total cpu time spent up to now is      838.3 secs

     total energy              =    -675.01163156 Ry
     estimated scf accuracy    <       0.00001073 Ry

     iteration #213     ecut=    80.00 Ry     beta= 0.10
     Davidson diagonalization with overlap
     ethr =  5.08E-09,  avg # of iterations =  3.8

     negative rho (up, down):  1.429E-03 0.000E+00

     total cpu time spent up to now is      842.6 secs

     total energy              =    -675.01163078 Ry
     estimated scf accuracy    <       0.00001324 Ry

     iteration #214     ecut=    80.00 Ry     beta= 0.10
     Davidson diagonalization with overlap
     ethr =  5.08E-09,  avg # of iterations =  1.0

     negative rho (up, down):  1.433E-03 0.000E+00

     total cpu time spent up to now is      846.1 secs

     total energy              =    -675.01163083 Ry
     estimated scf accuracy    <       0.00001128 Ry

     iteration #215     ecut=    80.00 Ry     beta= 0.10
     Davidson diagonalization with overlap
     ethr =  5.08E-09,  avg # of iterations =  1.0

     negative rho (up, down):  1.440E-03 0.000E+00

     total cpu time spent up to now is      849.6 secs

     total energy              =    -675.01163409 Ry
     estimated scf accuracy    <       0.00001109 Ry

     iteration #216     ecut=    80.00 Ry     beta= 0.10
     Davidson diagonalization with overlap
     ethr =  5.08E-09,  avg # of iterations =  2.0

     negative rho (up, down):  1.431E-03 0.000E+00

     total cpu time spent up to now is      853.4 secs

     total energy              =    -675.01163414 Ry
     estimated scf accuracy    <       0.00000914 Ry

     iteration #217     ecut=    80.00 Ry     beta= 0.10
     Davidson diagonalization with overlap
     ethr =  5.08E-09,  avg # of iterations =  1.2

     negative rho (up, down):  1.429E-03 0.000E+00

     total cpu time spent up to now is      857.0 secs

     total energy              =    -675.01163534 Ry
     estimated scf accuracy    <       0.00000992 Ry

     iteration #218     ecut=    80.00 Ry     beta= 0.10
     Davidson diagonalization with overlap
     ethr =  5.08E-09,  avg # of iterations =  2.0

     negative rho (up, down):  1.449E-03 0.000E+00

     total cpu time spent up to now is      860.8 secs

     total energy              =    -675.01163313 Ry
     estimated scf accuracy    <       0.00001216 Ry

     iteration #219     ecut=    80.00 Ry     beta= 0.10
     Davidson diagonalization with overlap
     ethr =  5.08E-09,  avg # of iterations =  2.0

     negative rho (up, down):  1.440E-03 0.000E+00

     total cpu time spent up to now is      864.6 secs

     total energy              =    -675.01163760 Ry
     estimated scf accuracy    <       0.00001103 Ry

     iteration #220     ecut=    80.00 Ry     beta= 0.10
     Davidson diagonalization with overlap
     ethr =  5.08E-09,  avg # of iterations =  2.4

     negative rho (up, down):  1.516E-03 0.000E+00

     total cpu time spent up to now is      868.6 secs

     total energy              =    -675.01163771 Ry
     estimated scf accuracy    <       0.00001526 Ry

     iteration #221     ecut=    80.00 Ry     beta= 0.10
     Davidson diagonalization with overlap
     ethr =  5.08E-09,  avg # of iterations =  1.8

     negative rho (up, down):  1.433E-03 0.000E+00

     total cpu time spent up to now is      872.3 secs

     total energy              =    -675.01163200 Ry
     estimated scf accuracy    <       0.00001854 Ry

     iteration #222     ecut=    80.00 Ry     beta= 0.10
     Davidson diagonalization with overlap
     ethr =  5.08E-09,  avg # of iterations =  4.8

     negative rho (up, down):  1.480E-03 0.000E+00

     total cpu time spent up to now is      877.3 secs

     total energy              =    -675.01164469 Ry
     estimated scf accuracy    <       0.00001962 Ry

     iteration #223     ecut=    80.00 Ry     beta= 0.10
     Davidson diagonalization with overlap
     ethr =  5.08E-09,  avg # of iterations =  4.8

     negative rho (up, down):  1.483E-03 0.000E+00

     total cpu time spent up to now is      882.1 secs

     total energy              =    -675.01163658 Ry
     estimated scf accuracy    <       0.00001506 Ry

     iteration #224     ecut=    80.00 Ry     beta= 0.10
     Davidson diagonalization with overlap
     ethr =  5.08E-09,  avg # of iterations =  1.0

     negative rho (up, down):  1.480E-03 0.000E+00

     total cpu time spent up to now is      885.6 secs

     total energy              =    -675.01163642 Ry
     estimated scf accuracy    <       0.00001544 Ry

     iteration #225     ecut=    80.00 Ry     beta= 0.10
     Davidson diagonalization with overlap
     ethr =  5.08E-09,  avg # of iterations =  1.0

     negative rho (up, down):  1.515E-03 0.000E+00

     total cpu time spent up to now is      889.1 secs

     total energy              =    -675.01163868 Ry
     estimated scf accuracy    <       0.00001521 Ry

     iteration #226     ecut=    80.00 Ry     beta= 0.10
     Davidson diagonalization with overlap
     ethr =  5.08E-09,  avg # of iterations =  2.0

     negative rho (up, down):  1.499E-03 0.000E+00

     total cpu time spent up to now is      892.9 secs

     total energy              =    -675.01164911 Ry
     estimated scf accuracy    <       0.00002148 Ry

     iteration #227     ecut=    80.00 Ry     beta= 0.10
     Davidson diagonalization with overlap
     ethr =  5.08E-09,  avg # of iterations =  4.2

     negative rho (up, down):  1.563E-03 0.000E+00

     total cpu time spent up to now is      897.4 secs

     total energy              =    -675.01163805 Ry
     estimated scf accuracy    <       0.00009542 Ry

     iteration #228     ecut=    80.00 Ry     beta= 0.10
     Davidson diagonalization with overlap
     ethr =  5.08E-09,  avg # of iterations =  3.8

     negative rho (up, down):  1.464E-03 0.000E+00

     total cpu time spent up to now is      901.7 secs

     total energy              =    -675.01164782 Ry
     estimated scf accuracy    <       0.00002881 Ry

     iteration #229     ecut=    80.00 Ry     beta= 0.10
     Davidson diagonalization with overlap
     ethr =  5.08E-09,  avg # of iterations =  3.6

     negative rho (up, down):  1.471E-03 0.000E+00

     total cpu time spent up to now is      906.0 secs

     total energy              =    -675.01162774 Ry
     estimated scf accuracy    <       0.00008054 Ry

     iteration #230     ecut=    80.00 Ry     beta= 0.10
     Davidson diagonalization with overlap
     ethr =  5.08E-09,  avg # of iterations =  4.8

     negative rho (up, down):  1.463E-03 0.000E+00

     total cpu time spent up to now is      911.0 secs

     total energy              =    -675.01163023 Ry
     estimated scf accuracy    <       0.00000960 Ry

     iteration #231     ecut=    80.00 Ry     beta= 0.10
     Davidson diagonalization with overlap
     ethr =  5.08E-09,  avg # of iterations =  2.6

     negative rho (up, down):  1.449E-03 0.000E+00

     total cpu time spent up to now is      915.0 secs

     total energy              =    -675.01164045 Ry
     estimated scf accuracy    <       0.00001458 Ry

     iteration #232     ecut=    80.00 Ry     beta= 0.10
     Davidson diagonalization with overlap
     ethr =  5.08E-09,  avg # of iterations =  3.8

     negative rho (up, down):  1.452E-03 0.000E+00

     total cpu time spent up to now is      919.5 secs

     total energy              =    -675.01163832 Ry
     estimated scf accuracy    <       0.00001321 Ry

     iteration #233     ecut=    80.00 Ry     beta= 0.10
     Davidson diagonalization with overlap
     ethr =  5.08E-09,  avg # of iterations =  2.0

     negative rho (up, down):  1.452E-03 0.000E+00

     total cpu time spent up to now is      923.3 secs

     total energy              =    -675.01163761 Ry
     estimated scf accuracy    <       0.00002008 Ry

     iteration #234     ecut=    80.00 Ry     beta= 0.10
     Davidson diagonalization with overlap
     ethr =  5.08E-09,  avg # of iterations =  1.0

     negative rho (up, down):  1.451E-03 0.000E+00

     total cpu time spent up to now is      926.8 secs

     total energy              =    -675.01163745 Ry
     estimated scf accuracy    <       0.00001844 Ry

     iteration #235     ecut=    80.00 Ry     beta= 0.10
     Davidson diagonalization with overlap
     ethr =  5.08E-09,  avg # of iterations =  1.0

     negative rho (up, down):  1.451E-03 0.000E+00

     total cpu time spent up to now is      930.3 secs

     total energy              =    -675.01163746 Ry
     estimated scf accuracy    <       0.00001788 Ry

     iteration #236     ecut=    80.00 Ry     beta= 0.10
     Davidson diagonalization with overlap
     ethr =  5.08E-09,  avg # of iterations =  1.0

     negative rho (up, down):  1.448E-03 0.000E+00

     total cpu time spent up to now is      933.8 secs

     total energy              =    -675.01163736 Ry
     estimated scf accuracy    <       0.00001796 Ry

     iteration #237     ecut=    80.00 Ry     beta= 0.10
     Davidson diagonalization with overlap
     ethr =  5.08E-09,  avg # of iterations =  1.0

     negative rho (up, down):  1.456E-03 0.000E+00

     total cpu time spent up to now is      937.3 secs

     total energy              =    -675.01163845 Ry
     estimated scf accuracy    <       0.00001762 Ry

     iteration #238     ecut=    80.00 Ry     beta= 0.10
     Davidson diagonalization with overlap
     ethr =  5.08E-09,  avg # of iterations =  1.0

     negative rho (up, down):  1.444E-03 0.000E+00

     total cpu time spent up to now is      940.8 secs

     total energy              =    -675.01163864 Ry
     estimated scf accuracy    <       0.00002136 Ry

     iteration #239     ecut=    80.00 Ry     beta= 0.10
     Davidson diagonalization with overlap
     ethr =  5.08E-09,  avg # of iterations =  1.0

     negative rho (up, down):  1.402E-03 0.000E+00

     total cpu time spent up to now is      944.3 secs

     total energy              =    -675.01163164 Ry
     estimated scf accuracy    <       0.00002204 Ry

     iteration #240     ecut=    80.00 Ry     beta= 0.10
     Davidson diagonalization with overlap
     ethr =  5.08E-09,  avg # of iterations =  4.8

     negative rho (up, down):  1.429E-03 0.000E+00

     total cpu time spent up to now is      949.3 secs

     total energy              =    -675.01165755 Ry
     estimated scf accuracy    <       0.00001804 Ry

     iteration #241     ecut=    80.00 Ry     beta= 0.10
     Davidson diagonalization with overlap
     ethr =  5.08E-09,  avg # of iterations =  5.2

     negative rho (up, down):  1.450E-03 0.000E+00

     total cpu time spent up to now is      954.7 secs

     total energy              =    -675.01163123 Ry
     estimated scf accuracy    <       0.00004866 Ry

     iteration #242     ecut=    80.00 Ry     beta= 0.10
     Davidson diagonalization with overlap
     ethr =  5.08E-09,  avg # of iterations =  4.8

     negative rho (up, down):  1.453E-03 0.000E+00

     total cpu time spent up to now is      959.4 secs

     total energy              =    -675.01163015 Ry
     estimated scf accuracy    <       0.00000981 Ry

     iteration #243     ecut=    80.00 Ry     beta= 0.10
     Davidson diagonalization with overlap
     ethr =  5.08E-09,  avg # of iterations =  3.8

     negative rho (up, down):  1.451E-03 0.000E+00

     total cpu time spent up to now is      963.7 secs

     total energy              =    -675.01163021 Ry
     estimated scf accuracy    <       0.00001619 Ry

     iteration #244     ecut=    80.00 Ry     beta= 0.10
     Davidson diagonalization with overlap
     ethr =  5.08E-09,  avg # of iterations =  1.0

     negative rho (up, down):  1.433E-03 0.000E+00

     total cpu time spent up to now is      967.2 secs

     total energy              =    -675.01164346 Ry
     estimated scf accuracy    <       0.00001216 Ry

     iteration #245     ecut=    80.00 Ry     beta= 0.10
     Davidson diagonalization with overlap
     ethr =  5.08E-09,  avg # of iterations =  4.8

     negative rho (up, down):  1.426E-03 0.000E+00

     total cpu time spent up to now is      972.0 secs

     total energy              =    -675.01163716 Ry
     estimated scf accuracy    <       0.00002205 Ry

     iteration #246     ecut=    80.00 Ry     beta= 0.10
     Davidson diagonalization with overlap
     ethr =  5.08E-09,  avg # of iterations =  1.0

     negative rho (up, down):  1.425E-03 0.000E+00

     total cpu time spent up to now is      975.5 secs

     total energy              =    -675.01163708 Ry
     estimated scf accuracy    <       0.00001753 Ry

     iteration #247     ecut=    80.00 Ry     beta= 0.10
     Davidson diagonalization with overlap
     ethr =  5.08E-09,  avg # of iterations =  1.0

     negative rho (up, down):  1.444E-03 0.000E+00

     total cpu time spent up to now is      979.0 secs

     total energy              =    -675.01163495 Ry
     estimated scf accuracy    <       0.00001725 Ry

     iteration #248     ecut=    80.00 Ry     beta= 0.10
     Davidson diagonalization with overlap
     ethr =  5.08E-09,  avg # of iterations =  2.0

     negative rho (up, down):  1.435E-03 0.000E+00

     total cpu time spent up to now is      982.9 secs

     total energy              =    -675.01163734 Ry
     estimated scf accuracy    <       0.00001227 Ry

     iteration #249     ecut=    80.00 Ry     beta= 0.10
     Davidson diagonalization with overlap
     ethr =  5.08E-09,  avg # of iterations =  2.0

     negative rho (up, down):  1.437E-03 0.000E+00

     total cpu time spent up to now is      986.7 secs

     total energy              =    -675.01163642 Ry
     estimated scf accuracy    <       0.00001662 Ry

     iteration #250     ecut=    80.00 Ry     beta= 0.10
     Davidson diagonalization with overlap
     ethr =  5.08E-09,  avg # of iterations =  1.0

     negative rho (up, down):  1.441E-03 0.000E+00

     total cpu time spent up to now is      990.2 secs

     total energy              =    -675.01163724 Ry
     estimated scf accuracy    <       0.00001505 Ry

     iteration #251     ecut=    80.00 Ry     beta= 0.10
     Davidson diagonalization with overlap
     ethr =  5.08E-09,  avg # of iterations =  1.0

     negative rho (up, down):  1.413E-03 0.000E+00

     total cpu time spent up to now is      993.7 secs

     total energy              =    -675.01163217 Ry
     estimated scf accuracy    <       0.00001705 Ry

     iteration #252     ecut=    80.00 Ry     beta= 0.10
     Davidson diagonalization with overlap
     ethr =  5.08E-09,  avg # of iterations =  4.2

     negative rho (up, down):  1.452E-03 0.000E+00

     total cpu time spent up to now is      998.3 secs

     total energy              =    -675.01162680 Ry
     estimated scf accuracy    <       0.00001206 Ry

     iteration #253     ecut=    80.00 Ry     beta= 0.10
     Davidson diagonalization with overlap
     ethr =  5.08E-09,  avg # of iterations =  4.8

     negative rho (up, down):  1.419E-03 0.000E+00

     total cpu time spent up to now is     1003.3 secs

     total energy              =    -675.01170941 Ry
     estimated scf accuracy    <       0.00005158 Ry

     iteration #254     ecut=    80.00 Ry     beta= 0.10
     Davidson diagonalization with overlap
     ethr =  5.08E-09,  avg # of iterations =  6.6

     negative rho (up, down):  1.417E-03 0.000E+00

     total cpu time spent up to now is     1009.2 secs

     total energy              =    -675.01164309 Ry
     estimated scf accuracy    <       0.00013300 Ry

     iteration #255     ecut=    80.00 Ry     beta= 0.10
     Davidson diagonalization with overlap
     ethr =  5.08E-09,  avg # of iterations =  3.6

     negative rho (up, down):  1.418E-03 0.000E+00

     total cpu time spent up to now is     1013.4 secs

     total energy              =    -675.01164448 Ry
     estimated scf accuracy    <       0.00005552 Ry

     iteration #256     ecut=    80.00 Ry     beta= 0.10
     Davidson diagonalization with overlap
     ethr =  5.08E-09,  avg # of iterations =  1.0

     negative rho (up, down):  1.432E-03 0.000E+00

     total cpu time spent up to now is     1016.9 secs

     total energy              =    -675.01164354 Ry
     estimated scf accuracy    <       0.00005430 Ry

     iteration #257     ecut=    80.00 Ry     beta= 0.10
     Davidson diagonalization with overlap
     ethr =  5.08E-09,  avg # of iterations =  1.0

     negative rho (up, down):  1.409E-03 0.000E+00

     total cpu time spent up to now is     1020.4 secs

     total energy              =    -675.01163932 Ry
     estimated scf accuracy    <       0.00004886 Ry

     iteration #258     ecut=    80.00 Ry     beta= 0.10
     Davidson diagonalization with overlap
     ethr =  5.08E-09,  avg # of iterations =  2.0

     negative rho (up, down):  1.428E-03 0.000E+00

     total cpu time spent up to now is     1024.2 secs

     total energy              =    -675.01163526 Ry
     estimated scf accuracy    <       0.00002808 Ry

     iteration #259     ecut=    80.00 Ry     beta= 0.10
     Davidson diagonalization with overlap
     ethr =  5.08E-09,  avg # of iterations =  3.8

     negative rho (up, down):  1.411E-03 0.000E+00

     total cpu time spent up to now is     1028.4 secs

     total energy              =    -675.01163472 Ry
     estimated scf accuracy    <       0.00001307 Ry

     iteration #260     ecut=    80.00 Ry     beta= 0.10
     Davidson diagonalization with overlap
     ethr =  5.08E-09,  avg # of iterations =  1.0

     negative rho (up, down):  1.402E-03 0.000E+00

     total cpu time spent up to now is     1031.9 secs

     total energy              =    -675.01163380 Ry
     estimated scf accuracy    <       0.00001170 Ry

     iteration #261     ecut=    80.00 Ry     beta= 0.10
     Davidson diagonalization with overlap
     ethr =  5.08E-09,  avg # of iterations =  2.0

     negative rho (up, down):  1.394E-03 0.000E+00

     total cpu time spent up to now is     1035.7 secs

     total energy              =    -675.01163568 Ry
     estimated scf accuracy    <       0.00001051 Ry

     iteration #262     ecut=    80.00 Ry     beta= 0.10
     Davidson diagonalization with overlap
     ethr =  5.08E-09,  avg # of iterations =  2.0

     negative rho (up, down):  1.410E-03 0.000E+00

     total cpu time spent up to now is     1039.5 secs

     total energy              =    -675.01163194 Ry
     estimated scf accuracy    <       0.00001227 Ry

     iteration #263     ecut=    80.00 Ry     beta= 0.10
     Davidson diagonalization with overlap
     ethr =  5.08E-09,  avg # of iterations =  4.8

     negative rho (up, down):  1.399E-03 0.000E+00

     total cpu time spent up to now is     1044.4 secs

     total energy              =    -675.01164978 Ry
     estimated scf accuracy    <       0.00002371 Ry

     iteration #264     ecut=    80.00 Ry     beta= 0.10
     Davidson diagonalization with overlap
     ethr =  5.08E-09,  avg # of iterations =  4.8

     negative rho (up, down):  1.400E-03 0.000E+00

     total cpu time spent up to now is     1049.4 secs

     total energy              =    -675.01163810 Ry
     estimated scf accuracy    <       0.00001784 Ry

     iteration #265     ecut=    80.00 Ry     beta= 0.10
     Davidson diagonalization with overlap
     ethr =  5.08E-09,  avg # of iterations =  1.0

     negative rho (up, down):  1.398E-03 0.000E+00

     total cpu time spent up to now is     1052.9 secs

     total energy              =    -675.01164147 Ry
     estimated scf accuracy    <       0.00001998 Ry

     iteration #266     ecut=    80.00 Ry     beta= 0.10
     Davidson diagonalization with overlap
     ethr =  5.08E-09,  avg # of iterations =  2.0

     negative rho (up, down):  1.398E-03 0.000E+00

     total cpu time spent up to now is     1056.7 secs

     total energy              =    -675.01164185 Ry
     estimated scf accuracy    <       0.00003549 Ry

     iteration #267     ecut=    80.00 Ry     beta= 0.10
     Davidson diagonalization with overlap
     ethr =  5.08E-09,  avg # of iterations =  1.0

     negative rho (up, down):  1.395E-03 0.000E+00

     total cpu time spent up to now is     1060.2 secs

     total energy              =    -675.01163887 Ry
     estimated scf accuracy    <       0.00003729 Ry

     iteration #268     ecut=    80.00 Ry     beta= 0.10
     Davidson diagonalization with overlap
     ethr =  5.08E-09,  avg # of iterations =  2.0

     negative rho (up, down):  1.407E-03 0.000E+00

     total cpu time spent up to now is     1064.0 secs

     total energy              =    -675.01164163 Ry
     estimated scf accuracy    <       0.00002462 Ry

     iteration #269     ecut=    80.00 Ry     beta= 0.10
     Davidson diagonalization with overlap
     ethr =  5.08E-09,  avg # of iterations =  2.0

     negative rho (up, down):  1.396E-03 0.000E+00

     total cpu time spent up to now is     1067.8 secs

     total energy              =    -675.01164053 Ry
     estimated scf accuracy    <       0.00003613 Ry

     iteration #270     ecut=    80.00 Ry     beta= 0.10
     Davidson diagonalization with overlap
     ethr =  5.08E-09,  avg # of iterations =  1.0

     negative rho (up, down):  1.395E-03 0.000E+00

     total cpu time spent up to now is     1071.3 secs

     total energy              =    -675.01164182 Ry
     estimated scf accuracy    <       0.00003132 Ry

     iteration #271     ecut=    80.00 Ry     beta= 0.10
     Davidson diagonalization with overlap
     ethr =  5.08E-09,  avg # of iterations =  1.0

     negative rho (up, down):  1.407E-03 0.000E+00

     total cpu time spent up to now is     1074.8 secs

     total energy              =    -675.01164269 Ry
     estimated scf accuracy    <       0.00003745 Ry

     iteration #272     ecut=    80.00 Ry     beta= 0.10
     Davidson diagonalization with overlap
     ethr =  5.08E-09,  avg # of iterations =  1.0

     negative rho (up, down):  1.404E-03 0.000E+00

     total cpu time spent up to now is     1078.3 secs

     total energy              =    -675.01163121 Ry
     estimated scf accuracy    <       0.00004192 Ry

     iteration #273     ecut=    80.00 Ry     beta= 0.10
     Davidson diagonalization with overlap
     ethr =  5.08E-09,  avg # of iterations =  4.2

     negative rho (up, down):  1.397E-03 0.000E+00

     total cpu time spent up to now is     1083.0 secs

     total energy              =    -675.01162957 Ry
     estimated scf accuracy    <       0.00000999 Ry

     iteration #274     ecut=    80.00 Ry     beta= 0.10
     Davidson diagonalization with overlap
     ethr =  5.08E-09,  avg # of iterations =  3.8

     negative rho (up, down):  1.410E-03 0.000E+00

     total cpu time spent up to now is     1087.3 secs

     total energy              =    -675.01164558 Ry
     estimated scf accuracy    <       0.00001741 Ry

     iteration #275     ecut=    80.00 Ry     beta= 0.10
     Davidson diagonalization with overlap
     ethr =  5.08E-09,  avg # of iterations =  4.8

     negative rho (up, down):  1.419E-03 0.000E+00

     total cpu time spent up to now is     1092.2 secs

     total energy              =    -675.01164252 Ry
     estimated scf accuracy    <       0.00001818 Ry

     iteration #276     ecut=    80.00 Ry     beta= 0.10
     Davidson diagonalization with overlap
     ethr =  5.08E-09,  avg # of iterations =  3.0

     negative rho (up, down):  1.419E-03 0.000E+00

     total cpu time spent up to now is     1096.2 secs

     total energy              =    -675.01164241 Ry
     estimated scf accuracy    <       0.00004237 Ry

     iteration #277     ecut=    80.00 Ry     beta= 0.10
     Davidson diagonalization with overlap
     ethr =  5.08E-09,  avg # of iterations =  1.0

     negative rho (up, down):  1.409E-03 0.000E+00

     total cpu time spent up to now is     1099.7 secs

     total energy              =    -675.01164081 Ry
     estimated scf accuracy    <       0.00004078 Ry

     iteration #278     ecut=    80.00 Ry     beta= 0.10
     Davidson diagonalization with overlap
     ethr =  5.08E-09,  avg # of iterations =  1.0

     negative rho (up, down):  1.411E-03 0.000E+00

     total cpu time spent up to now is     1103.2 secs

     total energy              =    -675.01164424 Ry
     estimated scf accuracy    <       0.00003313 Ry

     iteration #279     ecut=    80.00 Ry     beta= 0.10
     Davidson diagonalization with overlap
     ethr =  5.08E-09,  avg # of iterations =  2.0

     negative rho (up, down):  1.402E-03 0.000E+00

     total cpu time spent up to now is     1107.0 secs

     total energy              =    -675.01164155 Ry
     estimated scf accuracy    <       0.00005160 Ry

     iteration #280     ecut=    80.00 Ry     beta= 0.10
     Davidson diagonalization with overlap
     ethr =  5.08E-09,  avg # of iterations =  2.0

     negative rho (up, down):  1.409E-03 0.000E+00

     total cpu time spent up to now is     1110.7 secs

     total energy              =    -675.01163867 Ry
     estimated scf accuracy    <       0.00003752 Ry

     iteration #281     ecut=    80.00 Ry     beta= 0.10
     Davidson diagonalization with overlap
     ethr =  5.08E-09,  avg # of iterations =  2.0

     negative rho (up, down):  1.410E-03 0.000E+00

     total cpu time spent up to now is     1114.6 secs

     total energy              =    -675.01163919 Ry
     estimated scf accuracy    <       0.00002398 Ry

     iteration #282     ecut=    80.00 Ry     beta= 0.10
     Davidson diagonalization with overlap
     ethr =  5.08E-09,  avg # of iterations =  1.0

     negative rho (up, down):  1.392E-03 0.000E+00

     total cpu time spent up to now is     1118.1 secs

     total energy              =    -675.01163233 Ry
     estimated scf accuracy    <       0.00002508 Ry

     iteration #283     ecut=    80.00 Ry     beta= 0.10
     Davidson diagonalization with overlap
     ethr =  5.08E-09,  avg # of iterations =  4.2

     negative rho (up, down):  1.392E-03 0.000E+00

     total cpu time spent up to now is     1122.7 secs

     total energy              =    -675.01163161 Ry
     estimated scf accuracy    <       0.00000967 Ry

     iteration #284     ecut=    80.00 Ry     beta= 0.10
     Davidson diagonalization with overlap
     ethr =  5.08E-09,  avg # of iterations =  1.0

     negative rho (up, down):  1.389E-03 0.000E+00

     total cpu time spent up to now is     1126.2 secs

     total energy              =    -675.01163189 Ry
     estimated scf accuracy    <       0.00001009 Ry

     iteration #285     ecut=    80.00 Ry     beta= 0.10
     Davidson diagonalization with overlap
     ethr =  5.08E-09,  avg # of iterations =  1.0

     negative rho (up, down):  1.389E-03 0.000E+00

     total cpu time spent up to now is     1129.7 secs

     total energy              =    -675.01163040 Ry
     estimated scf accuracy    <       0.00000959 Ry

     iteration #286     ecut=    80.00 Ry     beta= 0.10
     Davidson diagonalization with overlap
     ethr =  5.08E-09,  avg # of iterations =  2.0

     negative rho (up, down):  1.394E-03 0.000E+00

     total cpu time spent up to now is     1133.5 secs

     total energy              =    -675.01163533 Ry
     estimated scf accuracy    <       0.00001267 Ry

     iteration #287     ecut=    80.00 Ry     beta= 0.10
     Davidson diagonalization with overlap
     ethr =  5.08E-09,  avg # of iterations =  2.0

     negative rho (up, down):  1.400E-03 0.000E+00

     total cpu time spent up to now is     1137.4 secs

     total energy              =    -675.01164110 Ry
     estimated scf accuracy    <       0.00000855 Ry

     iteration #288     ecut=    80.00 Ry     beta= 0.10
     Davidson diagonalization with overlap
     ethr =  5.08E-09,  avg # of iterations =  4.2

     negative rho (up, down):  1.423E-03 0.000E+00

     total cpu time spent up to now is     1142.0 secs

     total energy              =    -675.01163591 Ry
     estimated scf accuracy    <       0.00003120 Ry

     iteration #289     ecut=    80.00 Ry     beta= 0.10
     Davidson diagonalization with overlap
     ethr =  5.08E-09,  avg # of iterations =  2.2

     negative rho (up, down):  1.426E-03 0.000E+00

     total cpu time spent up to now is     1145.9 secs

     total energy              =    -675.01163469 Ry
     estimated scf accuracy    <       0.00001520 Ry

     iteration #290     ecut=    80.00 Ry     beta= 0.10
     Davidson diagonalization with overlap
     ethr =  5.08E-09,  avg # of iterations =  2.0

     negative rho (up, down):  1.426E-03 0.000E+00

     total cpu time spent up to now is     1149.7 secs

     total energy              =    -675.01163526 Ry
     estimated scf accuracy    <       0.00001210 Ry

     iteration #291     ecut=    80.00 Ry     beta= 0.10
     Davidson diagonalization with overlap
     ethr =  5.08E-09,  avg # of iterations =  1.0

     negative rho (up, down):  1.427E-03 0.000E+00

     total cpu time spent up to now is     1153.2 secs

     total energy              =    -675.01163646 Ry
     estimated scf accuracy    <       0.00001208 Ry

     iteration #292     ecut=    80.00 Ry     beta= 0.10
     Davidson diagonalization with overlap
     ethr =  5.08E-09,  avg # of iterations =  1.0

     negative rho (up, down):  1.424E-03 0.000E+00

     total cpu time spent up to now is     1156.7 secs

     total energy              =    -675.01163616 Ry
     estimated scf accuracy    <       0.00001438 Ry

     iteration #293     ecut=    80.00 Ry     beta= 0.10
     Davidson diagonalization with overlap
     ethr =  5.08E-09,  avg # of iterations =  1.0

     negative rho (up, down):  1.426E-03 0.000E+00

     total cpu time spent up to now is     1160.2 secs

     total energy              =    -675.01163600 Ry
     estimated scf accuracy    <       0.00001405 Ry

     iteration #294     ecut=    80.00 Ry     beta= 0.10
     Davidson diagonalization with overlap
     ethr =  5.08E-09,  avg # of iterations =  1.0

     negative rho (up, down):  1.429E-03 0.000E+00

     total cpu time spent up to now is     1163.7 secs

     total energy              =    -675.01163757 Ry
     estimated scf accuracy    <       0.00001375 Ry

     iteration #295     ecut=    80.00 Ry     beta= 0.10
     Davidson diagonalization with overlap
     ethr =  5.08E-09,  avg # of iterations =  2.0

     negative rho (up, down):  1.419E-03 0.000E+00

     total cpu time spent up to now is     1167.4 secs

     total energy              =    -675.01163206 Ry
     estimated scf accuracy    <       0.00001801 Ry

     iteration #296     ecut=    80.00 Ry     beta= 0.10
     Davidson diagonalization with overlap
     ethr =  5.08E-09,  avg # of iterations =  4.2

     negative rho (up, down):  1.418E-03 0.000E+00

     total cpu time spent up to now is     1172.1 secs

     total energy              =    -675.01163634 Ry
     estimated scf accuracy    <       0.00001241 Ry

     iteration #297     ecut=    80.00 Ry     beta= 0.10
     Davidson diagonalization with overlap
     ethr =  5.08E-09,  avg # of iterations =  3.8

     negative rho (up, down):  1.414E-03 0.000E+00

     total cpu time spent up to now is     1176.3 secs

     total energy              =    -675.01163375 Ry
     estimated scf accuracy    <       0.00000996 Ry

     iteration #298     ecut=    80.00 Ry     beta= 0.10
     Davidson diagonalization with overlap
     ethr =  5.08E-09,  avg # of iterations =  1.0

     negative rho (up, down):  1.403E-03 0.000E+00

     total cpu time spent up to now is     1179.8 secs

     total energy              =    -675.01163332 Ry
     estimated scf accuracy    <       0.00000981 Ry

     iteration #299     ecut=    80.00 Ry     beta= 0.10
     Davidson diagonalization with overlap
     ethr =  5.08E-09,  avg # of iterations =  1.0

     negative rho (up, down):  1.387E-03 0.000E+00

     total cpu time spent up to now is     1183.3 secs

     total energy              =    -675.01163029 Ry
     estimated scf accuracy    <       0.00000955 Ry

     iteration #300     ecut=    80.00 Ry     beta= 0.10
     Davidson diagonalization with overlap
     ethr =  5.08E-09,  avg # of iterations =  4.2

     negative rho (up, down):  1.396E-03 0.000E+00

     total cpu time spent up to now is     1188.0 secs

     total energy              =    -675.01163816 Ry
     estimated scf accuracy    <       0.00002296 Ry

     iteration #301     ecut=    80.00 Ry     beta= 0.10
     Davidson diagonalization with overlap
     ethr =  5.08E-09,  avg # of iterations =  4.2

     negative rho (up, down):  1.390E-03 0.000E+00

     total cpu time spent up to now is     1192.5 secs

     total energy              =    -675.01164766 Ry
     estimated scf accuracy    <       0.00000885 Ry

     iteration #302     ecut=    80.00 Ry     beta= 0.10
     Davidson diagonalization with overlap
     ethr =  5.08E-09,  avg # of iterations =  4.8

     negative rho (up, down):  1.396E-03 0.000E+00

     total cpu time spent up to now is     1197.5 secs

     total energy              =    -675.01162559 Ry
     estimated scf accuracy    <       0.00006490 Ry

     iteration #303     ecut=    80.00 Ry     beta= 0.10
     Davidson diagonalization with overlap
     ethr =  5.08E-09,  avg # of iterations =  5.8

     negative rho (up, down):  1.397E-03 0.000E+00

     total cpu time spent up to now is     1203.0 secs

     total energy              =    -675.01162573 Ry
     estimated scf accuracy    <       0.00002343 Ry

     iteration #304     ecut=    80.00 Ry     beta= 0.10
     Davidson diagonalization with overlap
     ethr =  5.08E-09,  avg # of iterations =  1.0

     negative rho (up, down):  1.397E-03 0.000E+00

     total cpu time spent up to now is     1206.5 secs

     total energy              =    -675.01163715 Ry
     estimated scf accuracy    <       0.00002298 Ry

     iteration #305     ecut=    80.00 Ry     beta= 0.10
     Davidson diagonalization with overlap
     ethr =  5.08E-09,  avg # of iterations =  4.0

     negative rho (up, down):  1.398E-03 0.000E+00

     total cpu time spent up to now is     1211.0 secs

     total energy              =    -675.01163360 Ry
     estimated scf accuracy    <       0.00000891 Ry

     iteration #306     ecut=    80.00 Ry     beta= 0.10
     Davidson diagonalization with overlap
     ethr =  5.08E-09,  avg # of iterations =  2.0

     negative rho (up, down):  1.401E-03 0.000E+00

     total cpu time spent up to now is     1214.7 secs

     total energy              =    -675.01164730 Ry
     estimated scf accuracy    <       0.00000886 Ry

     iteration #307     ecut=    80.00 Ry     beta= 0.10
     Davidson diagonalization with overlap
     ethr =  5.08E-09,  avg # of iterations =  4.8

     negative rho (up, down):  1.397E-03 0.000E+00

     total cpu time spent up to now is     1219.7 secs

     total energy              =    -675.01164844 Ry
     estimated scf accuracy    <       0.00006864 Ry

     iteration #308     ecut=    80.00 Ry     beta= 0.10
     Davidson diagonalization with overlap
     ethr =  5.08E-09,  avg # of iterations =  1.0

     negative rho (up, down):  1.411E-03 0.000E+00

     total cpu time spent up to now is     1223.2 secs

     total energy              =    -675.01166726 Ry
     estimated scf accuracy    <       0.00007838 Ry

     iteration #309     ecut=    80.00 Ry     beta= 0.10
     Davidson diagonalization with overlap
     ethr =  5.08E-09,  avg # of iterations =  4.2

     negative rho (up, down):  1.400E-03 0.000E+00

     total cpu time spent up to now is     1227.8 secs

     total energy              =    -675.01165782 Ry
     estimated scf accuracy    <       0.00027783 Ry

     iteration #310     ecut=    80.00 Ry     beta= 0.10
     Davidson diagonalization with overlap
     ethr =  5.08E-09,  avg # of iterations =  2.0

     negative rho (up, down):  1.387E-03 0.000E+00

     total cpu time spent up to now is     1231.9 secs

     total energy              =    -675.01164766 Ry
     estimated scf accuracy    <       0.00016630 Ry

     iteration #311     ecut=    80.00 Ry     beta= 0.10
     Davidson diagonalization with overlap
     ethr =  5.08E-09,  avg # of iterations =  3.8

     negative rho (up, down):  1.382E-03 0.000E+00

     total cpu time spent up to now is     1236.0 secs

     total energy              =    -675.01164284 Ry
     estimated scf accuracy    <       0.00008294 Ry

     iteration #312     ecut=    80.00 Ry     beta= 0.10
     Davidson diagonalization with overlap
     ethr =  5.08E-09,  avg # of iterations =  2.0

     negative rho (up, down):  1.385E-03 0.000E+00

     total cpu time spent up to now is     1239.8 secs

     total energy              =    -675.01162994 Ry
     estimated scf accuracy    <       0.00004754 Ry

     iteration #313     ecut=    80.00 Ry     beta= 0.10
     Davidson diagonalization with overlap
     ethr =  5.08E-09,  avg # of iterations =  4.8

     negative rho (up, down):  1.391E-03 0.000E+00

     total cpu time spent up to now is     1244.9 secs

     total energy              =    -675.01162981 Ry
     estimated scf accuracy    <       0.00000991 Ry

     iteration #314     ecut=    80.00 Ry     beta= 0.10
     Davidson diagonalization with overlap
     ethr =  5.08E-09,  avg # of iterations =  2.0

     negative rho (up, down):  1.380E-03 0.000E+00

     total cpu time spent up to now is     1248.7 secs

     total energy              =    -675.01162853 Ry
     estimated scf accuracy    <       0.00001403 Ry

     iteration #315     ecut=    80.00 Ry     beta= 0.10
     Davidson diagonalization with overlap
     ethr =  5.08E-09,  avg # of iterations =  1.0

     negative rho (up, down):  1.394E-03 0.000E+00

     total cpu time spent up to now is     1252.2 secs

     total energy              =    -675.01163375 Ry
     estimated scf accuracy    <       0.00001598 Ry

     iteration #316     ecut=    80.00 Ry     beta= 0.10
     Davidson diagonalization with overlap
     ethr =  5.08E-09,  avg # of iterations =  2.6

     negative rho (up, down):  1.396E-03 0.000E+00

     total cpu time spent up to now is     1256.1 secs

     total energy              =    -675.01165178 Ry
     estimated scf accuracy    <       0.00000830 Ry

     iteration #317     ecut=    80.00 Ry     beta= 0.10
     Davidson diagonalization with overlap
     ethr =  5.08E-09,  avg # of iterations =  4.8

     negative rho (up, down):  1.394E-03 0.000E+00

     total cpu time spent up to now is     1261.3 secs

     total energy              =    -675.01164591 Ry
     estimated scf accuracy    <       0.00008784 Ry

     iteration #318     ecut=    80.00 Ry     beta= 0.10
     Davidson diagonalization with overlap
     ethr =  5.08E-09,  avg # of iterations =  2.0

     negative rho (up, down):  1.397E-03 0.000E+00

     total cpu time spent up to now is     1265.0 secs

     total energy              =    -675.01163471 Ry
     estimated scf accuracy    <       0.00006392 Ry

     iteration #319     ecut=    80.00 Ry     beta= 0.10
     Davidson diagonalization with overlap
     ethr =  5.08E-09,  avg # of iterations =  3.8

     negative rho (up, down):  1.400E-03 0.000E+00

     total cpu time spent up to now is     1269.4 secs

     total energy              =    -675.01163593 Ry
     estimated scf accuracy    <       0.00001522 Ry

     iteration #320     ecut=    80.00 Ry     beta= 0.10
     Davidson diagonalization with overlap
     ethr =  5.08E-09,  avg # of iterations =  1.0

     negative rho (up, down):  1.402E-03 0.000E+00

     total cpu time spent up to now is     1272.9 secs

     total energy              =    -675.01163172 Ry
     estimated scf accuracy    <       0.00001374 Ry

     iteration #321     ecut=    80.00 Ry     beta= 0.10
     Davidson diagonalization with overlap
     ethr =  5.08E-09,  avg # of iterations =  4.2

     negative rho (up, down):  1.397E-03 0.000E+00

     total cpu time spent up to now is     1277.6 secs

     total energy              =    -675.01164691 Ry
     estimated scf accuracy    <       0.00001273 Ry

     iteration #322     ecut=    80.00 Ry     beta= 0.10
     Davidson diagonalization with overlap
     ethr =  5.08E-09,  avg # of iterations =  4.8

     negative rho (up, down):  1.398E-03 0.000E+00

     total cpu time spent up to now is     1282.5 secs

     total energy              =    -675.01163628 Ry
     estimated scf accuracy    <       0.00002856 Ry

     iteration #323     ecut=    80.00 Ry     beta= 0.10
     Davidson diagonalization with overlap
     ethr =  5.08E-09,  avg # of iterations =  2.0

     negative rho (up, down):  1.393E-03 0.000E+00

     total cpu time spent up to now is     1286.4 secs

     total energy              =    -675.01163534 Ry
     estimated scf accuracy    <       0.00001535 Ry

     iteration #324     ecut=    80.00 Ry     beta= 0.10
     Davidson diagonalization with overlap
     ethr =  5.08E-09,  avg # of iterations =  2.0

     negative rho (up, down):  1.367E-03 0.000E+00

     total cpu time spent up to now is     1290.2 secs

     total energy              =    -675.01163155 Ry
     estimated scf accuracy    <       0.00001265 Ry

     iteration #325     ecut=    80.00 Ry     beta= 0.10
     Davidson diagonalization with overlap
     ethr =  5.08E-09,  avg # of iterations =  4.0

     negative rho (up, down):  1.366E-03 0.000E+00

     total cpu time spent up to now is     1294.7 secs

     total energy              =    -675.01162798 Ry
     estimated scf accuracy    <       0.00001310 Ry

     iteration #326     ecut=    80.00 Ry     beta= 0.10
     Davidson diagonalization with overlap
     ethr =  5.08E-09,  avg # of iterations =  2.0

     negative rho (up, down):  1.370E-03 0.000E+00

     total cpu time spent up to now is     1298.6 secs

     total energy              =    -675.01163010 Ry
     estimated scf accuracy    <       0.00001824 Ry

     iteration #327     ecut=    80.00 Ry     beta= 0.10
     Davidson diagonalization with overlap
     ethr =  5.08E-09,  avg # of iterations =  2.0

     negative rho (up, down):  1.371E-03 0.000E+00

     total cpu time spent up to now is     1302.3 secs

     total energy              =    -675.01163529 Ry
     estimated scf accuracy    <       0.00001210 Ry

     iteration #328     ecut=    80.00 Ry     beta= 0.10
     Davidson diagonalization with overlap
     ethr =  5.08E-09,  avg # of iterations =  3.8

     negative rho (up, down):  1.386E-03 0.000E+00

     total cpu time spent up to now is     1306.6 secs

     total energy              =    -675.01165020 Ry
     estimated scf accuracy    <       0.00000902 Ry

     iteration #329     ecut=    80.00 Ry     beta= 0.10
     Davidson diagonalization with overlap
     ethr =  5.08E-09,  avg # of iterations =  4.8

     negative rho (up, down):  1.365E-03 0.000E+00

     total cpu time spent up to now is     1311.7 secs

     total energy              =    -675.01162293 Ry
     estimated scf accuracy    <       0.00009717 Ry

     iteration #330     ecut=    80.00 Ry     beta= 0.10
     Davidson diagonalization with overlap
     ethr =  5.08E-09,  avg # of iterations =  5.2

     negative rho (up, down):  1.362E-03 0.000E+00

     total cpu time spent up to now is     1317.0 secs

     total energy              =    -675.01162752 Ry
     estimated scf accuracy    <       0.00001281 Ry

     iteration #331     ecut=    80.00 Ry     beta= 0.10
     Davidson diagonalization with overlap
     ethr =  5.08E-09,  avg # of iterations =  2.2

     negative rho (up, down):  1.363E-03 0.000E+00

     total cpu time spent up to now is     1320.9 secs

     total energy              =    -675.01162739 Ry
     estimated scf accuracy    <       0.00002127 Ry

     iteration #332     ecut=    80.00 Ry     beta= 0.10
     Davidson diagonalization with overlap
     ethr =  5.08E-09,  avg # of iterations =  1.0

     negative rho (up, down):  1.362E-03 0.000E+00

     total cpu time spent up to now is     1324.4 secs

     total energy              =    -675.01162730 Ry
     estimated scf accuracy    <       0.00001844 Ry

     iteration #333     ecut=    80.00 Ry     beta= 0.10
     Davidson diagonalization with overlap
     ethr =  5.08E-09,  avg # of iterations =  1.0

     negative rho (up, down):  1.357E-03 0.000E+00

     total cpu time spent up to now is     1327.9 secs

     total energy              =    -675.01163476 Ry
     estimated scf accuracy    <       0.00001875 Ry

     iteration #334     ecut=    80.00 Ry     beta= 0.10
     Davidson diagonalization with overlap
     ethr =  5.08E-09,  avg # of iterations =  3.2

     negative rho (up, down):  1.362E-03 0.000E+00

     total cpu time spent up to now is     1332.2 secs

     total energy              =    -675.01163205 Ry
     estimated scf accuracy    <       0.00000896 Ry

     iteration #335     ecut=    80.00 Ry     beta= 0.10
     Davidson diagonalization with overlap
     ethr =  5.08E-09,  avg # of iterations =  1.0

     negative rho (up, down):  1.348E-03 0.000E+00

     total cpu time spent up to now is     1335.7 secs

     total energy              =    -675.01162916 Ry
     estimated scf accuracy    <       0.00000906 Ry

     iteration #336     ecut=    80.00 Ry     beta= 0.10
     Davidson diagonalization with overlap
     ethr =  5.08E-09,  avg # of iterations =  3.8

     negative rho (up, down):  1.371E-03 0.000E+00

     total cpu time spent up to now is     1340.0 secs

     total energy              =    -675.01163702 Ry
     estimated scf accuracy    <       0.00002287 Ry

     iteration #337     ecut=    80.00 Ry     beta= 0.10
     Davidson diagonalization with overlap
     ethr =  5.08E-09,  avg # of iterations =  3.8

     negative rho (up, down):  1.370E-03 0.000E+00

     total cpu time spent up to now is     1344.5 secs

     total energy              =    -675.01163020 Ry
     estimated scf accuracy    <       0.00000886 Ry

     iteration #338     ecut=    80.00 Ry     beta= 0.10
     Davidson diagonalization with overlap
     ethr =  5.08E-09,  avg # of iterations =  2.8

     negative rho (up, down):  1.372E-03 0.000E+00

     total cpu time spent up to now is     1348.5 secs

     total energy              =    -675.01165289 Ry
     estimated scf accuracy    <       0.00001460 Ry

     iteration #339     ecut=    80.00 Ry     beta= 0.10
     Davidson diagonalization with overlap
     ethr =  5.08E-09,  avg # of iterations =  4.8

     negative rho (up, down):  1.368E-03 0.000E+00

     total cpu time spent up to now is     1353.6 secs

     total energy              =    -675.01162889 Ry
     estimated scf accuracy    <       0.00004462 Ry

     iteration #340     ecut=    80.00 Ry     beta= 0.10
     Davidson diagonalization with overlap
     ethr =  5.08E-09,  avg # of iterations =  5.6

     negative rho (up, down):  1.380E-03 0.000E+00

     total cpu time spent up to now is     1359.0 secs

     total energy              =    -675.01167696 Ry
     estimated scf accuracy    <       0.00002715 Ry

     iteration #341     ecut=    80.00 Ry     beta= 0.10
     Davidson diagonalization with overlap
     ethr =  5.08E-09,  avg # of iterations =  6.0

     negative rho (up, down):  1.373E-03 0.000E+00

     total cpu time spent up to now is     1364.6 secs

     total energy              =    -675.01163198 Ry
     estimated scf accuracy    <       0.00009360 Ry

     iteration #342     ecut=    80.00 Ry     beta= 0.10
     Davidson diagonalization with overlap
     ethr =  5.08E-09,  avg # of iterations =  4.2

     negative rho (up, down):  1.355E-03 0.000E+00

     total cpu time spent up to now is     1369.2 secs

     total energy              =    -675.01163270 Ry
     estimated scf accuracy    <       0.00001343 Ry

     iteration #343     ecut=    80.00 Ry     beta= 0.10
     Davidson diagonalization with overlap
     ethr =  5.08E-09,  avg # of iterations =  3.8

     negative rho (up, down):  1.364E-03 0.000E+00

     total cpu time spent up to now is     1373.5 secs

     total energy              =    -675.01163727 Ry
     estimated scf accuracy    <       0.00000966 Ry

     iteration #344     ecut=    80.00 Ry     beta= 0.10
     Davidson diagonalization with overlap
     ethr =  5.08E-09,  avg # of iterations =  3.8

     negative rho (up, down):  1.352E-03 0.000E+00

     total cpu time spent up to now is     1377.7 secs

     total energy              =    -675.01163633 Ry
     estimated scf accuracy    <       0.00001276 Ry

     iteration #345     ecut=    80.00 Ry     beta= 0.10
     Davidson diagonalization with overlap
     ethr =  5.08E-09,  avg # of iterations =  5.8

     negative rho (up, down):  1.364E-03 0.000E+00

     total cpu time spent up to now is     1383.2 secs

     total energy              =    -675.01161128 Ry
     estimated scf accuracy    <       0.00005408 Ry

     iteration #346     ecut=    80.00 Ry     beta= 0.10
     Davidson diagonalization with overlap
     ethr =  5.08E-09,  avg # of iterations =  2.0

     negative rho (up, down):  1.350E-03 0.000E+00

     total cpu time spent up to now is     1387.0 secs

     total energy              =    -675.01161826 Ry
     estimated scf accuracy    <       0.00006511 Ry

     iteration #347     ecut=    80.00 Ry     beta= 0.10
     Davidson diagonalization with overlap
     ethr =  5.08E-09,  avg # of iterations =  2.0

     negative rho (up, down):  1.338E-03 0.000E+00

     total cpu time spent up to now is     1390.9 secs

     total energy              =    -675.01161184 Ry
     estimated scf accuracy    <       0.00004640 Ry

     iteration #348     ecut=    80.00 Ry     beta= 0.10
     Davidson diagonalization with overlap
     ethr =  5.08E-09,  avg # of iterations =  2.0

     negative rho (up, down):  1.341E-03 0.000E+00

     total cpu time spent up to now is     1394.7 secs

     total energy              =    -675.01161045 Ry
     estimated scf accuracy    <       0.00006478 Ry

     iteration #349     ecut=    80.00 Ry     beta= 0.10
     Davidson diagonalization with overlap
     ethr =  5.08E-09,  avg # of iterations =  1.0

     negative rho (up, down):  1.335E-03 0.000E+00

     total cpu time spent up to now is     1398.2 secs

     total energy              =    -675.01161871 Ry
     estimated scf accuracy    <       0.00006452 Ry

     iteration #350     ecut=    80.00 Ry     beta= 0.10
     Davidson diagonalization with overlap
     ethr =  5.08E-09,  avg # of iterations =  2.0

     negative rho (up, down):  1.374E-03 0.000E+00

     total cpu time spent up to now is     1402.1 secs

     total energy              =    -675.01168976 Ry
     estimated scf accuracy    <       0.00004506 Ry

     iteration #351     ecut=    80.00 Ry     beta= 0.10
     Davidson diagonalization with overlap
     ethr =  5.08E-09,  avg # of iterations =  6.4

     negative rho (up, down):  1.332E-03 0.000E+00

     total cpu time spent up to now is     1407.9 secs

     total energy              =    -675.01162492 Ry
     estimated scf accuracy    <       0.00006866 Ry

     iteration #352     ecut=    80.00 Ry     beta= 0.10
     Davidson diagonalization with overlap
     ethr =  5.08E-09,  avg # of iterations =  6.2

     negative rho (up, down):  1.373E-03 0.000E+00

     total cpu time spent up to now is     1413.6 secs

     total energy              =    -675.01165898 Ry
     estimated scf accuracy    <       0.00004459 Ry

     iteration #353     ecut=    80.00 Ry     beta= 0.10
     Davidson diagonalization with overlap
     ethr =  5.08E-09,  avg # of iterations =  5.2

     negative rho (up, down):  1.375E-03 0.000E+00

     total cpu time spent up to now is     1418.9 secs

     total energy              =    -675.01163690 Ry
     estimated scf accuracy    <       0.00001175 Ry

     iteration #354     ecut=    80.00 Ry     beta= 0.10
     Davidson diagonalization with overlap
     ethr =  5.08E-09,  avg # of iterations =  2.0

     negative rho (up, down):  1.371E-03 0.000E+00

     total cpu time spent up to now is     1422.7 secs

     total energy              =    -675.01164469 Ry
     estimated scf accuracy    <       0.00001532 Ry

     iteration #355     ecut=    80.00 Ry     beta= 0.10
     Davidson diagonalization with overlap
     ethr =  5.08E-09,  avg # of iterations =  4.2

     negative rho (up, down):  1.361E-03 0.000E+00

     total cpu time spent up to now is     1427.2 secs

     total energy              =    -675.01163641 Ry
     estimated scf accuracy    <       0.00006032 Ry

     iteration #356     ecut=    80.00 Ry     beta= 0.10
     Davidson diagonalization with overlap
     ethr =  5.08E-09,  avg # of iterations =  3.8

     negative rho (up, down):  1.351E-03 0.000E+00

     total cpu time spent up to now is     1431.4 secs

     total energy              =    -675.01163453 Ry
     estimated scf accuracy    <       0.00001883 Ry

     iteration #357     ecut=    80.00 Ry     beta= 0.10
     Davidson diagonalization with overlap
     ethr =  5.08E-09,  avg # of iterations =  2.2

     negative rho (up, down):  1.350E-03 0.000E+00

     total cpu time spent up to now is     1435.3 secs

     total energy              =    -675.01163425 Ry
     estimated scf accuracy    <       0.00001175 Ry

     iteration #358     ecut=    80.00 Ry     beta= 0.10
     Davidson diagonalization with overlap
     ethr =  5.08E-09,  avg # of iterations =  1.0

     negative rho (up, down):  1.355E-03 0.000E+00

     total cpu time spent up to now is     1438.8 secs

     total energy              =    -675.01163206 Ry
     estimated scf accuracy    <       0.00001100 Ry

     iteration #359     ecut=    80.00 Ry     beta= 0.10
     Davidson diagonalization with overlap
     ethr =  5.08E-09,  avg # of iterations =  3.0

     negative rho (up, down):  1.356E-03 0.000E+00

     total cpu time spent up to now is     1442.8 secs

     total energy              =    -675.01163146 Ry
     estimated scf accuracy    <       0.00001039 Ry

     iteration #360     ecut=    80.00 Ry     beta= 0.10
     Davidson diagonalization with overlap
     ethr =  5.08E-09,  avg # of iterations =  1.0

     negative rho (up, down):  1.353E-03 0.000E+00

     total cpu time spent up to now is     1446.3 secs

     total energy              =    -675.01163085 Ry
     estimated scf accuracy    <       0.00001046 Ry

     iteration #361     ecut=    80.00 Ry     beta= 0.10
     Davidson diagonalization with overlap
     ethr =  5.08E-09,  avg # of iterations =  1.0

     negative rho (up, down):  1.351E-03 0.000E+00

     total cpu time spent up to now is     1449.8 secs

     total energy              =    -675.01163007 Ry
     estimated scf accuracy    <       0.00001115 Ry

     iteration #362     ecut=    80.00 Ry     beta= 0.10
     Davidson diagonalization with overlap
     ethr =  5.08E-09,  avg # of iterations =  1.0

     negative rho (up, down):  1.354E-03 0.000E+00

     total cpu time spent up to now is     1453.3 secs

     total energy              =    -675.01163090 Ry
     estimated scf accuracy    <       0.00001265 Ry

     iteration #363     ecut=    80.00 Ry     beta= 0.10
     Davidson diagonalization with overlap
     ethr =  5.08E-09,  avg # of iterations =  1.0

     negative rho (up, down):  1.349E-03 0.000E+00

     total cpu time spent up to now is     1456.8 secs

     total energy              =    -675.01163103 Ry
     estimated scf accuracy    <       0.00001057 Ry

     iteration #364     ecut=    80.00 Ry     beta= 0.10
     Davidson diagonalization with overlap
     ethr =  5.08E-09,  avg # of iterations =  1.0

     negative rho (up, down):  1.376E-03 0.000E+00

     total cpu time spent up to now is     1460.3 secs

     total energy              =    -675.01163257 Ry
     estimated scf accuracy    <       0.00001031 Ry

     iteration #365     ecut=    80.00 Ry     beta= 0.10
     Davidson diagonalization with overlap
     ethr =  5.08E-09,  avg # of iterations =  2.0

     negative rho (up, down):  1.330E-03 0.000E+00

     total cpu time spent up to now is     1464.1 secs

     total energy              =    -675.01164211 Ry
     estimated scf accuracy    <       0.00000921 Ry

     iteration #366     ecut=    80.00 Ry     beta= 0.10
     Davidson diagonalization with overlap
     ethr =  5.08E-09,  avg # of iterations =  4.6

     negative rho (up, down):  1.340E-03 0.000E+00

     total cpu time spent up to now is     1468.8 secs

     total energy              =    -675.01163334 Ry
     estimated scf accuracy    <       0.00002923 Ry

     iteration #367     ecut=    80.00 Ry     beta= 0.10
     Davidson diagonalization with overlap
     ethr =  5.08E-09,  avg # of iterations =  4.0

     negative rho (up, down):  1.329E-03 0.000E+00

     total cpu time spent up to now is     1473.2 secs

     total energy              =    -675.01163041 Ry
     estimated scf accuracy    <       0.00000997 Ry

     iteration #368     ecut=    80.00 Ry     beta= 0.10
     Davidson diagonalization with overlap
     ethr =  5.08E-09,  avg # of iterations =  4.2

     negative rho (up, down):  1.327E-03 0.000E+00

     total cpu time spent up to now is     1477.9 secs

     total energy              =    -675.01163313 Ry
     estimated scf accuracy    <       0.00001905 Ry

     iteration #369     ecut=    80.00 Ry     beta= 0.10
     Davidson diagonalization with overlap
     ethr =  5.08E-09,  avg # of iterations =  3.2

     negative rho (up, down):  1.320E-03 0.000E+00

     total cpu time spent up to now is     1482.0 secs

     total energy              =    -675.01163819 Ry
     estimated scf accuracy    <       0.00000958 Ry

     iteration #370     ecut=    80.00 Ry     beta= 0.10
     Davidson diagonalization with overlap
     ethr =  5.08E-09,  avg # of iterations =  4.0

     negative rho (up, down):  1.322E-03 0.000E+00

     total cpu time spent up to now is     1486.5 secs

     total energy              =    -675.01163647 Ry
     estimated scf accuracy    <       0.00001380 Ry

     iteration #371     ecut=    80.00 Ry     beta= 0.10
     Davidson diagonalization with overlap
     ethr =  5.08E-09,  avg # of iterations =  1.0

     negative rho (up, down):  1.332E-03 0.000E+00

     total cpu time spent up to now is     1490.0 secs

     total energy              =    -675.01163199 Ry
     estimated scf accuracy    <       0.00001395 Ry

     iteration #372     ecut=    80.00 Ry     beta= 0.10
     Davidson diagonalization with overlap
     ethr =  5.08E-09,  avg # of iterations =  4.2

     negative rho (up, down):  1.341E-03 0.000E+00

     total cpu time spent up to now is     1494.6 secs

     total energy              =    -675.01163672 Ry
     estimated scf accuracy    <       0.00001423 Ry

     iteration #373     ecut=    80.00 Ry     beta= 0.10
     Davidson diagonalization with overlap
     ethr =  5.08E-09,  avg # of iterations =  3.8

     negative rho (up, down):  1.330E-03 0.000E+00

     total cpu time spent up to now is     1498.9 secs

     total energy              =    -675.01163120 Ry
     estimated scf accuracy    <       0.00000923 Ry

     iteration #374     ecut=    80.00 Ry     beta= 0.10
     Davidson diagonalization with overlap
     ethr =  5.08E-09,  avg # of iterations =  3.8

     negative rho (up, down):  1.329E-03 0.000E+00

     total cpu time spent up to now is     1503.2 secs

     total energy              =    -675.01163266 Ry
     estimated scf accuracy    <       0.00001408 Ry

     iteration #375     ecut=    80.00 Ry     beta= 0.10
     Davidson diagonalization with overlap
     ethr =  5.08E-09,  avg # of iterations =  2.0

     negative rho (up, down):  1.340E-03 0.000E+00

     total cpu time spent up to now is     1507.1 secs

     total energy              =    -675.01163926 Ry
     estimated scf accuracy    <       0.00000880 Ry

     iteration #376     ecut=    80.00 Ry     beta= 0.10
     Davidson diagonalization with overlap
     ethr =  5.08E-09,  avg # of iterations =  4.2

     negative rho (up, down):  1.341E-03 0.000E+00

     total cpu time spent up to now is     1511.7 secs

     total energy              =    -675.01165227 Ry
     estimated scf accuracy    <       0.00001750 Ry

     iteration #377     ecut=    80.00 Ry     beta= 0.10
     Davidson diagonalization with overlap
     ethr =  5.08E-09,  avg # of iterations =  4.8

     negative rho (up, down):  1.319E-03 0.000E+00

     total cpu time spent up to now is     1516.5 secs

     total energy              =    -675.01161394 Ry
     estimated scf accuracy    <       0.00013247 Ry

     iteration #378     ecut=    80.00 Ry     beta= 0.10
     Davidson diagonalization with overlap
     ethr =  5.08E-09,  avg # of iterations =  6.8

     negative rho (up, down):  1.326E-03 0.000E+00

     total cpu time spent up to now is     1522.6 secs

     total energy              =    -675.01163836 Ry
     estimated scf accuracy    <       0.00007415 Ry

     iteration #379     ecut=    80.00 Ry     beta= 0.10
     Davidson diagonalization with overlap
     ethr =  5.08E-09,  avg # of iterations =  4.8

     negative rho (up, down):  1.326E-03 0.000E+00

     total cpu time spent up to now is     1527.5 secs

     total energy              =    -675.01162692 Ry
     estimated scf accuracy    <       0.00002256 Ry

     iteration #380     ecut=    80.00 Ry     beta= 0.10
     Davidson diagonalization with overlap
     ethr =  5.08E-09,  avg # of iterations =  1.0

     negative rho (up, down):  1.333E-03 0.000E+00

     total cpu time spent up to now is     1531.0 secs

     total energy              =    -675.01162600 Ry
     estimated scf accuracy    <       0.00001905 Ry

     iteration #381     ecut=    80.00 Ry     beta= 0.10
     Davidson diagonalization with overlap
     ethr =  5.08E-09,  avg # of iterations =  1.0

     negative rho (up, down):  1.334E-03 0.000E+00

     total cpu time spent up to now is     1534.5 secs

     total energy              =    -675.01164093 Ry
     estimated scf accuracy    <       0.00002266 Ry

     iteration #382     ecut=    80.00 Ry     beta= 0.10
     Davidson diagonalization with overlap
     ethr =  5.08E-09,  avg # of iterations =  4.2

     negative rho (up, down):  1.332E-03 0.000E+00

     total cpu time spent up to now is     1539.2 secs

     total energy              =    -675.01163548 Ry
     estimated scf accuracy    <       0.00000938 Ry

     iteration #383     ecut=    80.00 Ry     beta= 0.10
     Davidson diagonalization with overlap
     ethr =  5.08E-09,  avg # of iterations =  2.0

     negative rho (up, down):  1.333E-03 0.000E+00

     total cpu time spent up to now is     1542.9 secs

     total energy              =    -675.01163965 Ry
     estimated scf accuracy    <       0.00001104 Ry

     iteration #384     ecut=    80.00 Ry     beta= 0.10
     Davidson diagonalization with overlap
     ethr =  5.08E-09,  avg # of iterations =  3.8

     negative rho (up, down):  1.337E-03 0.000E+00

     total cpu time spent up to now is     1547.1 secs

     total energy              =    -675.01164436 Ry
     estimated scf accuracy    <       0.00002570 Ry

     iteration #385     ecut=    80.00 Ry     beta= 0.10
     Davidson diagonalization with overlap
     ethr =  5.08E-09,  avg # of iterations =  2.2

     negative rho (up, down):  1.329E-03 0.000E+00

     total cpu time spent up to now is     1551.0 secs

     total energy              =    -675.01166385 Ry
     estimated scf accuracy    <       0.00005215 Ry

     iteration #386     ecut=    80.00 Ry     beta= 0.10
     Davidson diagonalization with overlap
     ethr =  5.08E-09,  avg # of iterations =  4.8

     negative rho (up, down):  1.332E-03 0.000E+00

     total cpu time spent up to now is     1555.8 secs

     total energy              =    -675.01166235 Ry
     estimated scf accuracy    <       0.00025377 Ry

     iteration #387     ecut=    80.00 Ry     beta= 0.10
     Davidson diagonalization with overlap
     ethr =  5.08E-09,  avg # of iterations =  2.0

     negative rho (up, down):  1.333E-03 0.000E+00

     total cpu time spent up to now is     1559.6 secs

     total energy              =    -675.01164440 Ry
     estimated scf accuracy    <       0.00019646 Ry

     iteration #388     ecut=    80.00 Ry     beta= 0.10
     Davidson diagonalization with overlap
     ethr =  5.08E-09,  avg # of iterations =  4.0

     negative rho (up, down):  1.331E-03 0.000E+00

     total cpu time spent up to now is     1564.0 secs

     total energy              =    -675.01166727 Ry
     estimated scf accuracy    <       0.00007080 Ry

     iteration #389     ecut=    80.00 Ry     beta= 0.10
     Davidson diagonalization with overlap
     ethr =  5.08E-09,  avg # of iterations =  4.2

     negative rho (up, down):  1.338E-03 0.000E+00

     total cpu time spent up to now is     1568.6 secs

     total energy              =    -675.01166100 Ry
     estimated scf accuracy    <       0.00028022 Ry

     iteration #390     ecut=    80.00 Ry     beta= 0.10
     Davidson diagonalization with overlap
     ethr =  5.08E-09,  avg # of iterations =  2.0

     negative rho (up, down):  1.339E-03 0.000E+00

     total cpu time spent up to now is     1572.4 secs

     total energy              =    -675.01161143 Ry
     estimated scf accuracy    <       0.00018887 Ry

     iteration #391     ecut=    80.00 Ry     beta= 0.10
     Davidson diagonalization with overlap
     ethr =  5.08E-09,  avg # of iterations =  6.0

     negative rho (up, down):  1.334E-03 0.000E+00

     total cpu time spent up to now is     1578.0 secs

     total energy              =    -675.01162716 Ry
     estimated scf accuracy    <       0.00001184 Ry

     iteration #392     ecut=    80.00 Ry     beta= 0.10
     Davidson diagonalization with overlap
     ethr =  5.08E-09,  avg # of iterations =  4.8

     negative rho (up, down):  1.329E-03 0.000E+00

     total cpu time spent up to now is     1583.0 secs

     total energy              =    -675.01166947 Ry
     estimated scf accuracy    <       0.00006206 Ry

     iteration #393     ecut=    80.00 Ry     beta= 0.10
     Davidson diagonalization with overlap
     ethr =  5.08E-09,  avg # of iterations =  5.8

     negative rho (up, down):  1.332E-03 0.000E+00

     total cpu time spent up to now is     1588.5 secs

     total energy              =    -675.01163289 Ry
     estimated scf accuracy    <       0.00001169 Ry

     iteration #394     ecut=    80.00 Ry     beta= 0.10
     Davidson diagonalization with overlap
     ethr =  5.08E-09,  avg # of iterations =  2.8

     negative rho (up, down):  1.327E-03 0.000E+00

     total cpu time spent up to now is     1592.5 secs

     total energy              =    -675.01163022 Ry
     estimated scf accuracy    <       0.00001004 Ry

     iteration #395     ecut=    80.00 Ry     beta= 0.10
     Davidson diagonalization with overlap
     ethr =  5.08E-09,  avg # of iterations =  3.8

     negative rho (up, down):  1.324E-03 0.000E+00

     total cpu time spent up to now is     1596.6 secs

     total energy              =    -675.01162550 Ry
     estimated scf accuracy    <       0.00001369 Ry

     iteration #396     ecut=    80.00 Ry     beta= 0.10
     Davidson diagonalization with overlap
     ethr =  5.08E-09,  avg # of iterations =  4.2

     negative rho (up, down):  1.322E-03 0.000E+00

     total cpu time spent up to now is     1601.2 secs

     total energy              =    -675.01161858 Ry
     estimated scf accuracy    <       0.00003630 Ry

     iteration #397     ecut=    80.00 Ry     beta= 0.10
     Davidson diagonalization with overlap
     ethr =  5.08E-09,  avg # of iterations =  2.0

     negative rho (up, down):  1.325E-03 0.000E+00

     total cpu time spent up to now is     1605.0 secs

     total energy              =    -675.01161536 Ry
     estimated scf accuracy    <       0.00004757 Ry

     iteration #398     ecut=    80.00 Ry     beta= 0.10
     Davidson diagonalization with overlap
     ethr =  5.08E-09,  avg # of iterations =  2.0

     negative rho (up, down):  1.326E-03 0.000E+00

     total cpu time spent up to now is     1608.9 secs

     total energy              =    -675.01161306 Ry
     estimated scf accuracy    <       0.00005602 Ry

     iteration #399     ecut=    80.00 Ry     beta= 0.10
     Davidson diagonalization with overlap
     ethr =  5.08E-09,  avg # of iterations =  2.0

     negative rho (up, down):  1.339E-03 0.000E+00

     total cpu time spent up to now is     1612.6 secs

     total energy              =    -675.01170787 Ry
     estimated scf accuracy    <       0.00006091 Ry

     iteration #400     ecut=    80.00 Ry     beta= 0.10
     Davidson diagonalization with overlap
     ethr =  5.08E-09,  avg # of iterations =  6.6

     negative rho (up, down):  1.326E-03 0.000E+00

     total cpu time spent up to now is     1618.5 secs

     total energy              =    -675.01162220 Ry
     estimated scf accuracy    <       0.00008383 Ry

     iteration #401     ecut=    80.00 Ry     beta= 0.10
     Davidson diagonalization with overlap
     ethr =  5.08E-09,  avg # of iterations =  6.2

     negative rho (up, down):  1.330E-03 0.000E+00

     total cpu time spent up to now is     1624.3 secs

     total energy              =    -675.01162560 Ry
     estimated scf accuracy    <       0.00004277 Ry

     iteration #402     ecut=    80.00 Ry     beta= 0.10
     Davidson diagonalization with overlap
     ethr =  5.08E-09,  avg # of iterations =  2.0

     negative rho (up, down):  1.329E-03 0.000E+00

     total cpu time spent up to now is     1628.1 secs

     total energy              =    -675.01162555 Ry
     estimated scf accuracy    <       0.00002542 Ry

     iteration #403     ecut=    80.00 Ry     beta= 0.10
     Davidson diagonalization with overlap
     ethr =  5.08E-09,  avg # of iterations =  1.0

     negative rho (up, down):  1.327E-03 0.000E+00

     total cpu time spent up to now is     1631.6 secs

     total energy              =    -675.01162506 Ry
     estimated scf accuracy    <       0.00002266 Ry

     iteration #404     ecut=    80.00 Ry     beta= 0.10
     Davidson diagonalization with overlap
     ethr =  5.08E-09,  avg # of iterations =  1.0

     negative rho (up, down):  1.303E-03 0.000E+00

     total cpu time spent up to now is     1635.1 secs

     total energy              =    -675.01161852 Ry
     estimated scf accuracy    <       0.00002467 Ry

     iteration #405     ecut=    80.00 Ry     beta= 0.10
     Davidson diagonalization with overlap
     ethr =  5.08E-09,  avg # of iterations =  5.8

     negative rho (up, down):  1.299E-03 0.000E+00

     total cpu time spent up to now is     1640.6 secs

     total energy              =    -675.01174362 Ry
     estimated scf accuracy    <       0.00007780 Ry

     iteration #406     ecut=    80.00 Ry     beta= 0.10
     Davidson diagonalization with overlap
     ethr =  5.08E-09,  avg # of iterations =  7.0

     negative rho (up, down):  1.300E-03 0.000E+00

     total cpu time spent up to now is     1646.8 secs

     total energy              =    -675.01165524 Ry
     estimated scf accuracy    <       0.00007271 Ry

     iteration #407     ecut=    80.00 Ry     beta= 0.10
     Davidson diagonalization with overlap
     ethr =  5.08E-09,  avg # of iterations =  2.4

     negative rho (up, down):  1.320E-03 0.000E+00

     total cpu time spent up to now is     1650.7 secs

     total energy              =    -675.01162822 Ry
     estimated scf accuracy    <       0.00013562 Ry

     iteration #408     ecut=    80.00 Ry     beta= 0.10
     Davidson diagonalization with overlap
     ethr =  5.08E-09,  avg # of iterations =  4.2

     negative rho (up, down):  1.324E-03 0.000E+00

     total cpu time spent up to now is     1655.6 secs

     total energy              =    -675.01163272 Ry
     estimated scf accuracy    <       0.00001271 Ry

     iteration #409     ecut=    80.00 Ry     beta= 0.10
     Davidson diagonalization with overlap
     ethr =  5.08E-09,  avg # of iterations =  3.8

     negative rho (up, down):  1.330E-03 0.000E+00

     total cpu time spent up to now is     1659.8 secs

     total energy              =    -675.01163213 Ry
     estimated scf accuracy    <       0.00000985 Ry

     iteration #410     ecut=    80.00 Ry     beta= 0.10
     Davidson diagonalization with overlap
     ethr =  5.08E-09,  avg # of iterations =  1.0

     negative rho (up, down):  1.333E-03 0.000E+00

     total cpu time spent up to now is     1663.3 secs

     total energy              =    -675.01162906 Ry
     estimated scf accuracy    <       0.00000966 Ry

     iteration #411     ecut=    80.00 Ry     beta= 0.10
     Davidson diagonalization with overlap
     ethr =  5.08E-09,  avg # of iterations =  4.0

     negative rho (up, down):  1.331E-03 0.000E+00

     total cpu time spent up to now is     1667.9 secs

     total energy              =    -675.01163432 Ry
     estimated scf accuracy    <       0.00002367 Ry

     iteration #412     ecut=    80.00 Ry     beta= 0.10
     Davidson diagonalization with overlap
     ethr =  5.08E-09,  avg # of iterations =  3.8

     negative rho (up, down):  1.331E-03 0.000E+00

     total cpu time spent up to now is     1672.2 secs

     total energy              =    -675.01163149 Ry
     estimated scf accuracy    <       0.00000954 Ry

     iteration #413     ecut=    80.00 Ry     beta= 0.10
     Davidson diagonalization with overlap
     ethr =  5.08E-09,  avg # of iterations =  1.0

     negative rho (up, down):  1.333E-03 0.000E+00

     total cpu time spent up to now is     1675.7 secs

     total energy              =    -675.01163631 Ry
     estimated scf accuracy    <       0.00000936 Ry

     iteration #414     ecut=    80.00 Ry     beta= 0.10
     Davidson diagonalization with overlap
     ethr =  5.08E-09,  avg # of iterations =  3.8

     negative rho (up, down):  1.329E-03 0.000E+00

     total cpu time spent up to now is     1679.9 secs

     total energy              =    -675.01163423 Ry
     estimated scf accuracy    <       0.00001068 Ry

     iteration #415     ecut=    80.00 Ry     beta= 0.10
     Davidson diagonalization with overlap
     ethr =  5.08E-09,  avg # of iterations =  1.0

     negative rho (up, down):  1.327E-03 0.000E+00

     total cpu time spent up to now is     1683.4 secs

     total energy              =    -675.01163794 Ry
     estimated scf accuracy    <       0.00000993 Ry

     iteration #416     ecut=    80.00 Ry     beta= 0.10
     Davidson diagonalization with overlap
     ethr =  5.08E-09,  avg # of iterations =  2.0

     negative rho (up, down):  1.325E-03 0.000E+00

     total cpu time spent up to now is     1687.3 secs

     total energy              =    -675.01164244 Ry
     estimated scf accuracy    <       0.00001642 Ry

     iteration #417     ecut=    80.00 Ry     beta= 0.10
     Davidson diagonalization with overlap
     ethr =  5.08E-09,  avg # of iterations =  3.8

     negative rho (up, down):  1.327E-03 0.000E+00

     total cpu time spent up to now is     1691.5 secs

     total energy              =    -675.01163810 Ry
     estimated scf accuracy    <       0.00004238 Ry

     iteration #418     ecut=    80.00 Ry     beta= 0.10
     Davidson diagonalization with overlap
     ethr =  5.08E-09,  avg # of iterations =  2.0

     negative rho (up, down):  1.330E-03 0.000E+00

     total cpu time spent up to now is     1695.4 secs

     total energy              =    -675.01163703 Ry
     estimated scf accuracy    <       0.00002206 Ry

     iteration #419     ecut=    80.00 Ry     beta= 0.10
     Davidson diagonalization with overlap
     ethr =  5.08E-09,  avg # of iterations =  2.0

     negative rho (up, down):  1.327E-03 0.000E+00

     total cpu time spent up to now is     1699.2 secs

     total energy              =    -675.01163683 Ry
     estimated scf accuracy    <       0.00001704 Ry

     iteration #420     ecut=    80.00 Ry     beta= 0.10
     Davidson diagonalization with overlap
     ethr =  5.08E-09,  avg # of iterations =  1.0

     negative rho (up, down):  1.334E-03 0.000E+00

     total cpu time spent up to now is     1702.7 secs

     total energy              =    -675.01163205 Ry
     estimated scf accuracy    <       0.00001603 Ry

     iteration #421     ecut=    80.00 Ry     beta= 0.10
     Davidson diagonalization with overlap
     ethr =  5.08E-09,  avg # of iterations =  4.8

     negative rho (up, down):  1.334E-03 0.000E+00

     total cpu time spent up to now is     1707.7 secs

     total energy              =    -675.01165500 Ry
     estimated scf accuracy    <       0.00002519 Ry

     iteration #422     ecut=    80.00 Ry     beta= 0.10
     Davidson diagonalization with overlap
     ethr =  5.08E-09,  avg # of iterations =  4.8

     negative rho (up, down):  1.336E-03 0.000E+00

     total cpu time spent up to now is     1712.9 secs

     total energy              =    -675.01164154 Ry
     estimated scf accuracy    <       0.00002208 Ry

     iteration #423     ecut=    80.00 Ry     beta= 0.10
     Davidson diagonalization with overlap
     ethr =  5.08E-09,  avg # of iterations =  2.0

     negative rho (up, down):  1.336E-03 0.000E+00

     total cpu time spent up to now is     1716.7 secs

     total energy              =    -675.01163120 Ry
     estimated scf accuracy    <       0.00003433 Ry

     iteration #424     ecut=    80.00 Ry     beta= 0.10
     Davidson diagonalization with overlap
     ethr =  5.08E-09,  avg # of iterations =  4.6

     negative rho (up, down):  1.329E-03 0.000E+00

     total cpu time spent up to now is     1721.6 secs

     total energy              =    -675.01163144 Ry
     estimated scf accuracy    <       0.00001041 Ry

     iteration #425     ecut=    80.00 Ry     beta= 0.10
     Davidson diagonalization with overlap
     ethr =  5.08E-09,  avg # of iterations =  1.0

     negative rho (up, down):  1.330E-03 0.000E+00

     total cpu time spent up to now is     1725.1 secs

     total energy              =    -675.01162855 Ry
     estimated scf accuracy    <       0.00000970 Ry

     iteration #426     ecut=    80.00 Ry     beta= 0.10
     Davidson diagonalization with overlap
     ethr =  5.08E-09,  avg # of iterations =  3.8

     negative rho (up, down):  1.326E-03 0.000E+00

     total cpu time spent up to now is     1729.4 secs

     total energy              =    -675.01164935 Ry
     estimated scf accuracy    <       0.00002167 Ry

     iteration #427     ecut=    80.00 Ry     beta= 0.10
     Davidson diagonalization with overlap
     ethr =  5.08E-09,  avg # of iterations =  4.8

     negative rho (up, down):  1.330E-03 0.000E+00

     total cpu time spent up to now is     1734.4 secs

     total energy              =    -675.01164151 Ry
     estimated scf accuracy    <       0.00001713 Ry

     iteration #428     ecut=    80.00 Ry     beta= 0.10
     Davidson diagonalization with overlap
     ethr =  5.08E-09,  avg # of iterations =  2.0

     negative rho (up, down):  1.332E-03 0.000E+00

     total cpu time spent up to now is     1738.2 secs

     total energy              =    -675.01163753 Ry
     estimated scf accuracy    <       0.00003422 Ry

     iteration #429     ecut=    80.00 Ry     beta= 0.10
     Davidson diagonalization with overlap
     ethr =  5.08E-09,  avg # of iterations =  2.0

     negative rho (up, down):  1.327E-03 0.000E+00

     total cpu time spent up to now is     1742.1 secs

     total energy              =    -675.01164125 Ry
     estimated scf accuracy    <       0.00001882 Ry

     iteration #430     ecut=    80.00 Ry     beta= 0.10
     Davidson diagonalization with overlap
     ethr =  5.08E-09,  avg # of iterations =  2.0

     negative rho (up, down):  1.331E-03 0.000E+00

     total cpu time spent up to now is     1745.9 secs

     total energy              =    -675.01164260 Ry
     estimated scf accuracy    <       0.00003289 Ry

     iteration #431     ecut=    80.00 Ry     beta= 0.10
     Davidson diagonalization with overlap
     ethr =  5.08E-09,  avg # of iterations =  1.0

     negative rho (up, down):  1.331E-03 0.000E+00

     total cpu time spent up to now is     1749.4 secs

     total energy              =    -675.01164183 Ry
     estimated scf accuracy    <       0.00003988 Ry

     iteration #432     ecut=    80.00 Ry     beta= 0.10
     Davidson diagonalization with overlap
     ethr =  5.08E-09,  avg # of iterations =  1.0

     negative rho (up, down):  1.332E-03 0.000E+00

     total cpu time spent up to now is     1752.9 secs

     total energy              =    -675.01164667 Ry
     estimated scf accuracy    <       0.00003643 Ry

     iteration #433     ecut=    80.00 Ry     beta= 0.10
     Davidson diagonalization with overlap
     ethr =  5.08E-09,  avg # of iterations =  2.0

     negative rho (up, down):  1.326E-03 0.000E+00

     total cpu time spent up to now is     1756.8 secs

     total energy              =    -675.01165669 Ry
     estimated scf accuracy    <       0.00006658 Ry

     iteration #434     ecut=    80.00 Ry     beta= 0.10
     Davidson diagonalization with overlap
     ethr =  5.08E-09,  avg # of iterations =  4.0

     negative rho (up, down):  1.335E-03 0.000E+00

     total cpu time spent up to now is     1761.0 secs

     total energy              =    -675.01161272 Ry
     estimated scf accuracy    <       0.00015251 Ry

     iteration #435     ecut=    80.00 Ry     beta= 0.10
     Davidson diagonalization with overlap
     ethr =  5.08E-09,  avg # of iterations =  6.0

     negative rho (up, down):  1.330E-03 0.000E+00

     total cpu time spent up to now is     1766.6 secs

     total energy              =    -675.01162560 Ry
     estimated scf accuracy    <       0.00001770 Ry

     iteration #436     ecut=    80.00 Ry     beta= 0.10
     Davidson diagonalization with overlap
     ethr =  5.08E-09,  avg # of iterations =  2.0

     negative rho (up, down):  1.330E-03 0.000E+00

     total cpu time spent up to now is     1770.4 secs

     total energy              =    -675.01162988 Ry
     estimated scf accuracy    <       0.00002461 Ry

     iteration #437     ecut=    80.00 Ry     beta= 0.10
     Davidson diagonalization with overlap
     ethr =  5.08E-09,  avg # of iterations =  2.0

     negative rho (up, down):  1.331E-03 0.000E+00

     total cpu time spent up to now is     1774.2 secs

     total energy              =    -675.01163395 Ry
     estimated scf accuracy    <       0.00001315 Ry

     iteration #438     ecut=    80.00 Ry     beta= 0.10
     Davidson diagonalization with overlap
     ethr =  5.08E-09,  avg # of iterations =  3.8

     negative rho (up, down):  1.331E-03 0.000E+00

     total cpu time spent up to now is     1778.5 secs

     total energy              =    -675.01163461 Ry
     estimated scf accuracy    <       0.00000844 Ry

     iteration #439     ecut=    80.00 Ry     beta= 0.10
     Davidson diagonalization with overlap
     ethr =  5.08E-09,  avg # of iterations =  2.0

     negative rho (up, down):  1.327E-03 0.000E+00

     total cpu time spent up to now is     1782.3 secs

     total energy              =    -675.01163709 Ry
     estimated scf accuracy    <       0.00000888 Ry

     iteration #440     ecut=    80.00 Ry     beta= 0.10
     Davidson diagonalization with overlap
     ethr =  5.08E-09,  avg # of iterations =  3.6

     negative rho (up, down):  1.327E-03 0.000E+00

     total cpu time spent up to now is     1786.4 secs

     total energy              =    -675.01163908 Ry
     estimated scf accuracy    <       0.00001470 Ry

     iteration #441     ecut=    80.00 Ry     beta= 0.10
     Davidson diagonalization with overlap
     ethr =  5.08E-09,  avg # of iterations =  2.0

     negative rho (up, down):  1.324E-03 0.000E+00

     total cpu time spent up to now is     1790.2 secs

     total energy              =    -675.01165984 Ry
     estimated scf accuracy    <       0.00002230 Ry

     iteration #442     ecut=    80.00 Ry     beta= 0.10
     Davidson diagonalization with overlap
     ethr =  5.08E-09,  avg # of iterations =  4.8

     negative rho (up, down):  1.331E-03 0.000E+00

     total cpu time spent up to now is     1795.2 secs

     total energy              =    -675.01165018 Ry
     estimated scf accuracy    <       0.00023612 Ry

     iteration #443     ecut=    80.00 Ry     beta= 0.10
     Davidson diagonalization with overlap
     ethr =  5.08E-09,  avg # of iterations =  3.8

     negative rho (up, down):  1.334E-03 0.000E+00

     total cpu time spent up to now is     1799.4 secs

     total energy              =    -675.01165598 Ry
     estimated scf accuracy    <       0.00010866 Ry

     iteration #444     ecut=    80.00 Ry     beta= 0.10
     Davidson diagonalization with overlap
     ethr =  5.08E-09,  avg # of iterations =  1.0

     negative rho (up, down):  1.333E-03 0.000E+00

     total cpu time spent up to now is     1802.9 secs

     total energy              =    -675.01165081 Ry
     estimated scf accuracy    <       0.00013739 Ry

     iteration #445     ecut=    80.00 Ry     beta= 0.10
     Davidson diagonalization with overlap
     ethr =  5.08E-09,  avg # of iterations =  2.0

     negative rho (up, down):  1.339E-03 0.000E+00

     total cpu time spent up to now is     1806.7 secs

     total energy              =    -675.01162448 Ry
     estimated scf accuracy    <       0.00010053 Ry

     iteration #446     ecut=    80.00 Ry     beta= 0.10
     Davidson diagonalization with overlap
     ethr =  5.08E-09,  avg # of iterations =  5.0

     negative rho (up, down):  1.332E-03 0.000E+00

     total cpu time spent up to now is     1811.9 secs

     total energy              =    -675.01162892 Ry
     estimated scf accuracy    <       0.00000963 Ry

     iteration #447     ecut=    80.00 Ry     beta= 0.10
     Davidson diagonalization with overlap
     ethr =  5.08E-09,  avg # of iterations =  4.6

     negative rho (up, down):  1.327E-03 0.000E+00

     total cpu time spent up to now is     1816.9 secs

     total energy              =    -675.01167870 Ry
     estimated scf accuracy    <       0.00004046 Ry

     iteration #448     ecut=    80.00 Ry     beta= 0.10
     Davidson diagonalization with overlap
     ethr =  5.08E-09,  avg # of iterations =  6.2

     negative rho (up, down):  1.332E-03 0.000E+00

     total cpu time spent up to now is     1822.5 secs

     total energy              =    -675.01163851 Ry
     estimated scf accuracy    <       0.00004807 Ry

     iteration #449     ecut=    80.00 Ry     beta= 0.10
     Davidson diagonalization with overlap
     ethr =  5.08E-09,  avg # of iterations =  2.0

     negative rho (up, down):  1.333E-03 0.000E+00

     total cpu time spent up to now is     1826.3 secs

     total energy              =    -675.01163586 Ry
     estimated scf accuracy    <       0.00002372 Ry

     iteration #450     ecut=    80.00 Ry     beta= 0.10
     Davidson diagonalization with overlap
     ethr =  5.08E-09,  avg # of iterations =  3.6

     negative rho (up, down):  1.337E-03 0.000E+00

     total cpu time spent up to now is     1830.4 secs

     total energy              =    -675.01163830 Ry
     estimated scf accuracy    <       0.00001309 Ry

     iteration #451     ecut=    80.00 Ry     beta= 0.10
     Davidson diagonalization with overlap
     ethr =  5.08E-09,  avg # of iterations =  2.0

     negative rho (up, down):  1.338E-03 0.000E+00

     total cpu time spent up to now is     1834.2 secs

     total energy              =    -675.01164146 Ry
     estimated scf accuracy    <       0.00001949 Ry

     iteration #452     ecut=    80.00 Ry     beta= 0.10
     Davidson diagonalization with overlap
     ethr =  5.08E-09,  avg # of iterations =  2.0

     negative rho (up, down):  1.332E-03 0.000E+00

     total cpu time spent up to now is     1838.1 secs

     total energy              =    -675.01163106 Ry
     estimated scf accuracy    <       0.00003461 Ry

     iteration #453     ecut=    80.00 Ry     beta= 0.10
     Davidson diagonalization with overlap
     ethr =  5.08E-09,  avg # of iterations =  4.2

     negative rho (up, down):  1.337E-03 0.000E+00

     total cpu time spent up to now is     1842.9 secs

     total energy              =    -675.01163879 Ry
     estimated scf accuracy    <       0.00000999 Ry

     iteration #454     ecut=    80.00 Ry     beta= 0.10
     Davidson diagonalization with overlap
     ethr =  5.08E-09,  avg # of iterations =  4.0

     negative rho (up, down):  1.337E-03 0.000E+00

     total cpu time spent up to now is     1847.3 secs

     total energy              =    -675.01163344 Ry
     estimated scf accuracy    <       0.00001342 Ry

     iteration #455     ecut=    80.00 Ry     beta= 0.10
     Davidson diagonalization with overlap
     ethr =  5.08E-09,  avg # of iterations =  2.8

     negative rho (up, down):  1.331E-03 0.000E+00

     total cpu time spent up to now is     1851.3 secs

     total energy              =    -675.01164295 Ry
     estimated scf accuracy    <       0.00000902 Ry

     iteration #456     ecut=    80.00 Ry     beta= 0.10
     Davidson diagonalization with overlap
     ethr =  5.08E-09,  avg # of iterations =  4.2

     negative rho (up, down):  1.330E-03 0.000E+00

     total cpu time spent up to now is     1855.9 secs

     total energy              =    -675.01163136 Ry
     estimated scf accuracy    <       0.00003369 Ry

     iteration #457     ecut=    80.00 Ry     beta= 0.10
     Davidson diagonalization with overlap
     ethr =  5.08E-09,  avg # of iterations =  4.6

     negative rho (up, down):  1.326E-03 0.000E+00

     total cpu time spent up to now is     1860.7 secs

     total energy              =    -675.01162942 Ry
     estimated scf accuracy    <       0.00000960 Ry

     iteration #458     ecut=    80.00 Ry     beta= 0.10
     Davidson diagonalization with overlap
     ethr =  5.08E-09,  avg # of iterations =  2.0

     negative rho (up, down):  1.324E-03 0.000E+00

     total cpu time spent up to now is     1864.5 secs

     total energy              =    -675.01164024 Ry
     estimated scf accuracy    <       0.00001519 Ry

     iteration #459     ecut=    80.00 Ry     beta= 0.10
     Davidson diagonalization with overlap
     ethr =  5.08E-09,  avg # of iterations =  3.8

     negative rho (up, down):  1.320E-03 0.000E+00

     total cpu time spent up to now is     1869.1 secs

     total energy              =    -675.01164918 Ry
     estimated scf accuracy    <       0.00001055 Ry

     iteration #460     ecut=    80.00 Ry     beta= 0.10
     Davidson diagonalization with overlap
     ethr =  5.08E-09,  avg # of iterations =  4.8

     negative rho (up, down):  1.342E-03 0.000E+00

     total cpu time spent up to now is     1874.0 secs

     total energy              =    -675.01163170 Ry
     estimated scf accuracy    <       0.00009866 Ry

     iteration #461     ecut=    80.00 Ry     beta= 0.10
     Davidson diagonalization with overlap
     ethr =  5.08E-09,  avg # of iterations =  4.8

     negative rho (up, down):  1.324E-03 0.000E+00

     total cpu time spent up to now is     1878.7 secs

     total energy              =    -675.01163234 Ry
     estimated scf accuracy    <       0.00001346 Ry

     iteration #462     ecut=    80.00 Ry     beta= 0.10
     Davidson diagonalization with overlap
     ethr =  5.08E-09,  avg # of iterations =  4.0

     negative rho (up, down):  1.322E-03 0.000E+00

     total cpu time spent up to now is     1883.1 secs

     total energy              =    -675.01163175 Ry
     estimated scf accuracy    <       0.00000952 Ry

     iteration #463     ecut=    80.00 Ry     beta= 0.10
     Davidson diagonalization with overlap
     ethr =  5.08E-09,  avg # of iterations =  1.0

     negative rho (up, down):  1.328E-03 0.000E+00

     total cpu time spent up to now is     1886.6 secs

     total energy              =    -675.01163142 Ry
     estimated scf accuracy    <       0.00000906 Ry

     iteration #464     ecut=    80.00 Ry     beta= 0.10
     Davidson diagonalization with overlap
     ethr =  5.08E-09,  avg # of iterations =  1.0

     negative rho (up, down):  1.329E-03 0.000E+00

     total cpu time spent up to now is     1890.1 secs

     total energy              =    -675.01163174 Ry
     estimated scf accuracy    <       0.00000983 Ry

     iteration #465     ecut=    80.00 Ry     beta= 0.10
     Davidson diagonalization with overlap
     ethr =  5.08E-09,  avg # of iterations =  1.0

     negative rho (up, down):  1.331E-03 0.000E+00

     total cpu time spent up to now is     1893.6 secs

     total energy              =    -675.01163202 Ry
     estimated scf accuracy    <       0.00000924 Ry

     iteration #466     ecut=    80.00 Ry     beta= 0.10
     Davidson diagonalization with overlap
     ethr =  5.08E-09,  avg # of iterations =  1.0

     negative rho (up, down):  1.333E-03 0.000E+00

     total cpu time spent up to now is     1897.1 secs

     total energy              =    -675.01163075 Ry
     estimated scf accuracy    <       0.00000903 Ry

     iteration #467     ecut=    80.00 Ry     beta= 0.10
     Davidson diagonalization with overlap
     ethr =  5.08E-09,  avg # of iterations =  2.0

     negative rho (up, down):  1.331E-03 0.000E+00

     total cpu time spent up to now is     1900.8 secs

     total energy              =    -675.01162722 Ry
     estimated scf accuracy    <       0.00001133 Ry

     iteration #468     ecut=    80.00 Ry     beta= 0.10
     Davidson diagonalization with overlap
     ethr =  5.08E-09,  avg # of iterations =  4.0

     negative rho (up, down):  1.333E-03 0.000E+00

     total cpu time spent up to now is     1905.2 secs

     total energy              =    -675.01163449 Ry
     estimated scf accuracy    <       0.00002668 Ry

     iteration #469     ecut=    80.00 Ry     beta= 0.10
     Davidson diagonalization with overlap
     ethr =  5.08E-09,  avg # of iterations =  3.8

     negative rho (up, down):  1.336E-03 0.000E+00

     total cpu time spent up to now is     1909.5 secs

     total energy              =    -675.01164148 Ry
     estimated scf accuracy    <       0.00000972 Ry

     iteration #470     ecut=    80.00 Ry     beta= 0.10
     Davidson diagonalization with overlap
     ethr =  5.08E-09,  avg # of iterations =  4.2

     negative rho (up, down):  1.337E-03 0.000E+00

     total cpu time spent up to now is     1914.3 secs

     total energy              =    -675.01163580 Ry
     estimated scf accuracy    <       0.00002029 Ry

     iteration #471     ecut=    80.00 Ry     beta= 0.10
     Davidson diagonalization with overlap
     ethr =  5.08E-09,  avg # of iterations =  2.0

     negative rho (up, down):  1.338E-03 0.000E+00

     total cpu time spent up to now is     1918.1 secs

     total energy              =    -675.01163282 Ry
     estimated scf accuracy    <       0.00001346 Ry

     iteration #472     ecut=    80.00 Ry     beta= 0.10
     Davidson diagonalization with overlap
     ethr =  5.08E-09,  avg # of iterations =  3.8

     negative rho (up, down):  1.337E-03 0.000E+00

     total cpu time spent up to now is     1922.3 secs

     total energy              =    -675.01163235 Ry
     estimated scf accuracy    <       0.00000943 Ry

     iteration #473     ecut=    80.00 Ry     beta= 0.10
     Davidson diagonalization with overlap
     ethr =  5.08E-09,  avg # of iterations =  1.0

     negative rho (up, down):  1.335E-03 0.000E+00

     total cpu time spent up to now is     1925.8 secs

     total energy              =    -675.01163143 Ry
     estimated scf accuracy    <       0.00000929 Ry

     iteration #474     ecut=    80.00 Ry     beta= 0.10
     Davidson diagonalization with overlap
     ethr =  5.08E-09,  avg # of iterations =  2.0

     negative rho (up, down):  1.335E-03 0.000E+00

     total cpu time spent up to now is     1929.5 secs

     total energy              =    -675.01163186 Ry
     estimated scf accuracy    <       0.00001019 Ry

     iteration #475     ecut=    80.00 Ry     beta= 0.10
     Davidson diagonalization with overlap
     ethr =  5.08E-09,  avg # of iterations =  1.0

     negative rho (up, down):  1.340E-03 0.000E+00

     total cpu time spent up to now is     1933.0 secs

     total energy              =    -675.01163207 Ry
     estimated scf accuracy    <       0.00000922 Ry

     iteration #476     ecut=    80.00 Ry     beta= 0.10
     Davidson diagonalization with overlap
     ethr =  5.08E-09,  avg # of iterations =  1.0

     negative rho (up, down):  1.342E-03 0.000E+00

     total cpu time spent up to now is     1936.5 secs

     total energy              =    -675.01163207 Ry
     estimated scf accuracy    <       0.00000911 Ry

     iteration #477     ecut=    80.00 Ry     beta= 0.10
     Davidson diagonalization with overlap
     ethr =  5.08E-09,  avg # of iterations =  1.0

     negative rho (up, down):  1.336E-03 0.000E+00

     total cpu time spent up to now is     1940.0 secs

     total energy              =    -675.01162943 Ry
     estimated scf accuracy    <       0.00000915 Ry

     iteration #478     ecut=    80.00 Ry     beta= 0.10
     Davidson diagonalization with overlap
     ethr =  5.08E-09,  avg # of iterations =  4.8

     negative rho (up, down):  1.343E-03 0.000E+00

     total cpu time spent up to now is     1945.0 secs

     total energy              =    -675.01165897 Ry
     estimated scf accuracy    <       0.00004141 Ry

     iteration #479     ecut=    80.00 Ry     beta= 0.10
     Davidson diagonalization with overlap
     ethr =  5.08E-09,  avg # of iterations =  5.0

     negative rho (up, down):  1.346E-03 0.000E+00

     total cpu time spent up to now is     1950.2 secs

     total energy              =    -675.01165197 Ry
     estimated scf accuracy    <       0.00001278 Ry

     iteration #480     ecut=    80.00 Ry     beta= 0.10
     Davidson diagonalization with overlap
     ethr =  5.08E-09,  avg # of iterations =  4.8

     negative rho (up, down):  1.329E-03 0.000E+00

     total cpu time spent up to now is     1955.2 secs

     total energy              =    -675.01162081 Ry
     estimated scf accuracy    <       0.00013113 Ry

     iteration #481     ecut=    80.00 Ry     beta= 0.10
     Davidson diagonalization with overlap
     ethr =  5.08E-09,  avg # of iterations =  5.2

     negative rho (up, down):  1.328E-03 0.000E+00

     total cpu time spent up to now is     1960.5 secs

     total energy              =    -675.01163230 Ry
     estimated scf accuracy    <       0.00000987 Ry

     iteration #482     ecut=    80.00 Ry     beta= 0.10
     Davidson diagonalization with overlap
     ethr =  5.08E-09,  avg # of iterations =  1.0

     negative rho (up, down):  1.332E-03 0.000E+00

     total cpu time spent up to now is     1964.0 secs

     total energy              =    -675.01163106 Ry
     estimated scf accuracy    <       0.00000889 Ry

     iteration #483     ecut=    80.00 Ry     beta= 0.10
     Davidson diagonalization with overlap
     ethr =  5.08E-09,  avg # of iterations =  2.0

     negative rho (up, down):  1.338E-03 0.000E+00

     total cpu time spent up to now is     1967.8 secs

     total energy              =    -675.01163245 Ry
     estimated scf accuracy    <       0.00001075 Ry

     iteration #484     ecut=    80.00 Ry     beta= 0.10
     Davidson diagonalization with overlap
     ethr =  5.08E-09,  avg # of iterations =  2.0

     negative rho (up, down):  1.326E-03 0.000E+00

     total cpu time spent up to now is     1971.6 secs

     total energy              =    -675.01163468 Ry
     estimated scf accuracy    <       0.00000859 Ry

     iteration #485     ecut=    80.00 Ry     beta= 0.10
     Davidson diagonalization with overlap
     ethr =  5.08E-09,  avg # of iterations =  2.0

     negative rho (up, down):  1.329E-03 0.000E+00

     total cpu time spent up to now is     1975.4 secs

     total energy              =    -675.01163302 Ry
     estimated scf accuracy    <       0.00000891 Ry

     iteration #486     ecut=    80.00 Ry     beta= 0.10
     Davidson diagonalization with overlap
     ethr =  5.08E-09,  avg # of iterations =  2.0

     negative rho (up, down):  1.333E-03 0.000E+00

     total cpu time spent up to now is     1979.1 secs

     total energy              =    -675.01163129 Ry
     estimated scf accuracy    <       0.00000893 Ry

     iteration #487     ecut=    80.00 Ry     beta= 0.10
     Davidson diagonalization with overlap
     ethr =  5.08E-09,  avg # of iterations =  2.0

     negative rho (up, down):  1.328E-03 0.000E+00

     total cpu time spent up to now is     1983.0 secs

     total energy              =    -675.01162755 Ry
     estimated scf accuracy    <       0.00001061 Ry

     iteration #488     ecut=    80.00 Ry     beta= 0.10
     Davidson diagonalization with overlap
     ethr =  5.08E-09,  avg # of iterations =  4.2

     negative rho (up, down):  1.326E-03 0.000E+00

     total cpu time spent up to now is     1987.5 secs

     total energy              =    -675.01165016 Ry
     estimated scf accuracy    <       0.00002905 Ry

     iteration #489     ecut=    80.00 Ry     beta= 0.10
     Davidson diagonalization with overlap
     ethr =  5.08E-09,  avg # of iterations =  4.8

     negative rho (up, down):  1.325E-03 0.000E+00

     total cpu time spent up to now is     1992.6 secs

     total energy              =    -675.01165239 Ry
     estimated scf accuracy    <       0.00001204 Ry

     iteration #490     ecut=    80.00 Ry     beta= 0.10
     Davidson diagonalization with overlap
     ethr =  5.08E-09,  avg # of iterations =  4.8

     negative rho (up, down):  1.330E-03 0.000E+00

     total cpu time spent up to now is     1997.6 secs

     total energy              =    -675.01162647 Ry
     estimated scf accuracy    <       0.00013239 Ry

     iteration #491     ecut=    80.00 Ry     beta= 0.10
     Davidson diagonalization with overlap
     ethr =  5.08E-09,  avg # of iterations =  4.8

     negative rho (up, down):  1.329E-03 0.000E+00

     total cpu time spent up to now is     2002.6 secs

     total energy              =    -675.01163536 Ry
     estimated scf accuracy    <       0.00001048 Ry

     iteration #492     ecut=    80.00 Ry     beta= 0.10
     Davidson diagonalization with overlap
     ethr =  5.08E-09,  avg # of iterations =  1.0

     negative rho (up, down):  1.327E-03 0.000E+00

     total cpu time spent up to now is     2006.1 secs

     total energy              =    -675.01163630 Ry
     estimated scf accuracy    <       0.00001097 Ry

     iteration #493     ecut=    80.00 Ry     beta= 0.10
     Davidson diagonalization with overlap
     ethr =  5.08E-09,  avg # of iterations =  1.0

     negative rho (up, down):  1.331E-03 0.000E+00

     total cpu time spent up to now is     2009.6 secs

     total energy              =    -675.01163685 Ry
     estimated scf accuracy    <       0.00001297 Ry

     iteration #494     ecut=    80.00 Ry     beta= 0.10
     Davidson diagonalization with overlap
     ethr =  5.08E-09,  avg # of iterations =  1.0

     negative rho (up, down):  1.331E-03 0.000E+00

     total cpu time spent up to now is     2013.1 secs

     total energy              =    -675.01163495 Ry
     estimated scf accuracy    <       0.00001435 Ry

     iteration #495     ecut=    80.00 Ry     beta= 0.10
     Davidson diagonalization with overlap
     ethr =  5.08E-09,  avg # of iterations =  2.0

     negative rho (up, down):  1.330E-03 0.000E+00

     total cpu time spent up to now is     2016.9 secs

     total energy              =    -675.01163401 Ry
     estimated scf accuracy    <       0.00001098 Ry

     iteration #496     ecut=    80.00 Ry     beta= 0.10
     Davidson diagonalization with overlap
     ethr =  5.08E-09,  avg # of iterations =  2.0

     negative rho (up, down):  1.324E-03 0.000E+00

     total cpu time spent up to now is     2020.7 secs

     total energy              =    -675.01163081 Ry
     estimated scf accuracy    <       0.00000980 Ry

     iteration #497     ecut=    80.00 Ry     beta= 0.10
     Davidson diagonalization with overlap
     ethr =  5.08E-09,  avg # of iterations =  4.2

     negative rho (up, down):  1.324E-03 0.000E+00

     total cpu time spent up to now is     2025.2 secs

     total energy              =    -675.01162908 Ry
     estimated scf accuracy    <       0.00001699 Ry

     iteration #498     ecut=    80.00 Ry     beta= 0.10
     Davidson diagonalization with overlap
     ethr =  5.08E-09,  avg # of iterations =  1.0

     negative rho (up, down):  1.327E-03 0.000E+00

     total cpu time spent up to now is     2028.7 secs

     total energy              =    -675.01162928 Ry
     estimated scf accuracy    <       0.00001368 Ry

     iteration #499     ecut=    80.00 Ry     beta= 0.10
     Davidson diagonalization with overlap
     ethr =  5.08E-09,  avg # of iterations =  1.0

     negative rho (up, down):  1.329E-03 0.000E+00

     total cpu time spent up to now is     2032.2 secs

     total energy              =    -675.01163917 Ry
     estimated scf accuracy    <       0.00001300 Ry

     iteration #500     ecut=    80.00 Ry     beta= 0.10
     Davidson diagonalization with overlap
     ethr =  5.08E-09,  avg # of iterations =  4.2

     negative rho (up, down):  1.323E-03 0.000E+00

     total cpu time spent up to now is     2036.8 secs

     total energy              =    -675.01163773 Ry
     estimated scf accuracy    <       0.00001133 Ry

     iteration #501     ecut=    80.00 Ry     beta= 0.10
     Davidson diagonalization with overlap
     ethr =  5.08E-09,  avg # of iterations =  2.0

     negative rho (up, down):  1.328E-03 0.000E+00

     total cpu time spent up to now is     2040.7 secs

     total energy              =    -675.01164002 Ry
     estimated scf accuracy    <       0.00001699 Ry

     iteration #502     ecut=    80.00 Ry     beta= 0.10
     Davidson diagonalization with overlap
     ethr =  5.08E-09,  avg # of iterations =  2.0

     negative rho (up, down):  1.322E-03 0.000E+00

     total cpu time spent up to now is     2044.5 secs

     total energy              =    -675.01163277 Ry
     estimated scf accuracy    <       0.00002611 Ry

     iteration #503     ecut=    80.00 Ry     beta= 0.10
     Davidson diagonalization with overlap
     ethr =  5.08E-09,  avg # of iterations =  3.8

     negative rho (up, down):  1.324E-03 0.000E+00

     total cpu time spent up to now is     2049.0 secs

     total energy              =    -675.01163405 Ry
     estimated scf accuracy    <       0.00000981 Ry

     iteration #504     ecut=    80.00 Ry     beta= 0.10
     Davidson diagonalization with overlap
     ethr =  5.08E-09,  avg # of iterations =  2.0

     negative rho (up, down):  1.327E-03 0.000E+00

     total cpu time spent up to now is     2052.8 secs

     total energy              =    -675.01163324 Ry
     estimated scf accuracy    <       0.00000918 Ry

     iteration #505     ecut=    80.00 Ry     beta= 0.10
     Davidson diagonalization with overlap
     ethr =  5.08E-09,  avg # of iterations =  1.0

     negative rho (up, down):  1.313E-03 0.000E+00

     total cpu time spent up to now is     2056.4 secs

     total energy              =    -675.01163052 Ry
     estimated scf accuracy    <       0.00000923 Ry

     iteration #506     ecut=    80.00 Ry     beta= 0.10
     Davidson diagonalization with overlap
     ethr =  5.08E-09,  avg # of iterations =  3.8

     negative rho (up, down):  1.328E-03 0.000E+00

     total cpu time spent up to now is     2060.6 secs

     total energy              =    -675.01162964 Ry
     estimated scf accuracy    <       0.00001541 Ry

     iteration #507     ecut=    80.00 Ry     beta= 0.10
     Davidson diagonalization with overlap
     ethr =  5.08E-09,  avg # of iterations =  1.0

     negative rho (up, down):  1.329E-03 0.000E+00

     total cpu time spent up to now is     2064.2 secs

     total energy              =    -675.01163054 Ry
     estimated scf accuracy    <       0.00001259 Ry

     iteration #508     ecut=    80.00 Ry     beta= 0.10
     Davidson diagonalization with overlap
     ethr =  5.08E-09,  avg # of iterations =  1.0

     negative rho (up, down):  1.330E-03 0.000E+00

     total cpu time spent up to now is     2067.6 secs

     total energy              =    -675.01163251 Ry
     estimated scf accuracy    <       0.00001080 Ry

     iteration #509     ecut=    80.00 Ry     beta= 0.10
     Davidson diagonalization with overlap
     ethr =  5.08E-09,  avg # of iterations =  2.0

     negative rho (up, down):  1.336E-03 0.000E+00

     total cpu time spent up to now is     2071.5 secs

     total energy              =    -675.01163414 Ry
     estimated scf accuracy    <       0.00000856 Ry

     iteration #510     ecut=    80.00 Ry     beta= 0.10
     Davidson diagonalization with overlap
     ethr =  5.08E-09,  avg # of iterations =  2.0

     negative rho (up, down):  1.332E-03 0.000E+00

     total cpu time spent up to now is     2075.3 secs

     total energy              =    -675.01163322 Ry
     estimated scf accuracy    <       0.00000851 Ry

     iteration #511     ecut=    80.00 Ry     beta= 0.10
     Davidson diagonalization with overlap
     ethr =  5.08E-09,  avg # of iterations =  1.0

     negative rho (up, down):  1.342E-03 0.000E+00

     total cpu time spent up to now is     2078.8 secs

     total energy              =    -675.01164031 Ry
     estimated scf accuracy    <       0.00000889 Ry

     iteration #512     ecut=    80.00 Ry     beta= 0.10
     Davidson diagonalization with overlap
     ethr =  5.08E-09,  avg # of iterations =  4.0

     negative rho (up, down):  1.324E-03 0.000E+00

     total cpu time spent up to now is     2083.3 secs

     total energy              =    -675.01163177 Ry
     estimated scf accuracy    <       0.00002312 Ry

     iteration #513     ecut=    80.00 Ry     beta= 0.10
     Davidson diagonalization with overlap
     ethr =  5.08E-09,  avg # of iterations =  4.8

     negative rho (up, down):  1.326E-03 0.000E+00

     total cpu time spent up to now is     2088.1 secs

     total energy              =    -675.01163221 Ry
     estimated scf accuracy    <       0.00001302 Ry

     iteration #514     ecut=    80.00 Ry     beta= 0.10
     Davidson diagonalization with overlap
     ethr =  5.08E-09,  avg # of iterations =  2.0

     negative rho (up, down):  1.321E-03 0.000E+00

     total cpu time spent up to now is     2092.0 secs

     total energy              =    -675.01163055 Ry
     estimated scf accuracy    <       0.00000874 Ry

     iteration #515     ecut=    80.00 Ry     beta= 0.10
     Davidson diagonalization with overlap
     ethr =  5.08E-09,  avg # of iterations =  4.8

     negative rho (up, down):  1.323E-03 0.000E+00

     total cpu time spent up to now is     2097.1 secs

     total energy              =    -675.01162997 Ry
     estimated scf accuracy    <       0.00005813 Ry

     iteration #516     ecut=    80.00 Ry     beta= 0.10
     Davidson diagonalization with overlap
     ethr =  5.08E-09,  avg # of iterations =  4.0

     negative rho (up, down):  1.322E-03 0.000E+00

     total cpu time spent up to now is     2101.5 secs

     total energy              =    -675.01162469 Ry
     estimated scf accuracy    <       0.00002405 Ry

     iteration #517     ecut=    80.00 Ry     beta= 0.10
     Davidson diagonalization with overlap
     ethr =  5.08E-09,  avg # of iterations =  1.0

     negative rho (up, down):  1.320E-03 0.000E+00

     total cpu time spent up to now is     2105.0 secs

     total energy              =    -675.01162993 Ry
     estimated scf accuracy    <       0.00002577 Ry

     iteration #518     ecut=    80.00 Ry     beta= 0.10
     Davidson diagonalization with overlap
     ethr =  5.08E-09,  avg # of iterations =  2.0

     negative rho (up, down):  1.320E-03 0.000E+00

     total cpu time spent up to now is     2108.9 secs

     total energy              =    -675.01162908 Ry
     estimated scf accuracy    <       0.00001349 Ry

     iteration #519     ecut=    80.00 Ry     beta= 0.10
     Davidson diagonalization with overlap
     ethr =  5.08E-09,  avg # of iterations =  1.0

     negative rho (up, down):  1.320E-03 0.000E+00

     total cpu time spent up to now is     2112.4 secs

     total energy              =    -675.01162911 Ry
     estimated scf accuracy    <       0.00001315 Ry

     iteration #520     ecut=    80.00 Ry     beta= 0.10
     Davidson diagonalization with overlap
     ethr =  5.08E-09,  avg # of iterations =  1.0

     negative rho (up, down):  1.307E-03 0.000E+00

     total cpu time spent up to now is     2115.9 secs

     total energy              =    -675.01163275 Ry
     estimated scf accuracy    <       0.00001309 Ry

     iteration #521     ecut=    80.00 Ry     beta= 0.10
     Davidson diagonalization with overlap
     ethr =  5.08E-09,  avg # of iterations =  3.6

     negative rho (up, down):  1.311E-03 0.000E+00

     total cpu time spent up to now is     2120.0 secs

     total energy              =    -675.01164253 Ry
     estimated scf accuracy    <       0.00000925 Ry

     iteration #522     ecut=    80.00 Ry     beta= 0.10
     Davidson diagonalization with overlap
     ethr =  5.08E-09,  avg # of iterations =  4.8

     negative rho (up, down):  1.312E-03 0.000E+00

     total cpu time spent up to now is     2124.7 secs

     total energy              =    -675.01163114 Ry
     estimated scf accuracy    <       0.00002846 Ry

     iteration #523     ecut=    80.00 Ry     beta= 0.10
     Davidson diagonalization with overlap
     ethr =  5.08E-09,  avg # of iterations =  4.8

     negative rho (up, down):  1.310E-03 0.000E+00

     total cpu time spent up to now is     2129.7 secs

     total energy              =    -675.01162646 Ry
     estimated scf accuracy    <       0.00001576 Ry

     iteration #524     ecut=    80.00 Ry     beta= 0.10
     Davidson diagonalization with overlap
     ethr =  5.08E-09,  avg # of iterations =  2.0

     negative rho (up, down):  1.312E-03 0.000E+00

     total cpu time spent up to now is     2133.6 secs

     total energy              =    -675.01163933 Ry
     estimated scf accuracy    <       0.00002432 Ry

     iteration #525     ecut=    80.00 Ry     beta= 0.10
     Davidson diagonalization with overlap
     ethr =  5.08E-09,  avg # of iterations =  4.0

     negative rho (up, down):  1.313E-03 0.000E+00

     total cpu time spent up to now is     2138.1 secs

     total energy              =    -675.01163422 Ry
     estimated scf accuracy    <       0.00000903 Ry

     iteration #526     ecut=    80.00 Ry     beta= 0.10
     Davidson diagonalization with overlap
     ethr =  5.08E-09,  avg # of iterations =  1.2

     negative rho (up, down):  1.317E-03 0.000E+00

     total cpu time spent up to now is     2141.6 secs

     total energy              =    -675.01163123 Ry
     estimated scf accuracy    <       0.00000946 Ry

     iteration #527     ecut=    80.00 Ry     beta= 0.10
     Davidson diagonalization with overlap
     ethr =  5.08E-09,  avg # of iterations =  3.8

     negative rho (up, down):  1.318E-03 0.000E+00

     total cpu time spent up to now is     2146.1 secs

     total energy              =    -675.01163129 Ry
     estimated scf accuracy    <       0.00001592 Ry

     iteration #528     ecut=    80.00 Ry     beta= 0.10
     Davidson diagonalization with overlap
     ethr =  5.08E-09,  avg # of iterations =  2.0

     negative rho (up, down):  1.322E-03 0.000E+00

     total cpu time spent up to now is     2149.9 secs

     total energy              =    -675.01163014 Ry
     estimated scf accuracy    <       0.00001029 Ry

     iteration #529     ecut=    80.00 Ry     beta= 0.10
     Davidson diagonalization with overlap
     ethr =  5.08E-09,  avg # of iterations =  1.0

     negative rho (up, down):  1.322E-03 0.000E+00

     total cpu time spent up to now is     2153.4 secs

     total energy              =    -675.01162943 Ry
     estimated scf accuracy    <       0.00001223 Ry

     iteration #530     ecut=    80.00 Ry     beta= 0.10
     Davidson diagonalization with overlap
     ethr =  5.08E-09,  avg # of iterations =  1.0

     negative rho (up, down):  1.320E-03 0.000E+00

     total cpu time spent up to now is     2156.9 secs

     total energy              =    -675.01162783 Ry
     estimated scf accuracy    <       0.00001383 Ry

     iteration #531     ecut=    80.00 Ry     beta= 0.10
     Davidson diagonalization with overlap
     ethr =  5.08E-09,  avg # of iterations =  2.0

     negative rho (up, down):  1.335E-03 0.000E+00

     total cpu time spent up to now is     2160.7 secs

     total energy              =    -675.01165784 Ry
     estimated scf accuracy    <       0.00001876 Ry

     iteration #532     ecut=    80.00 Ry     beta= 0.10
     Davidson diagonalization with overlap
     ethr =  5.08E-09,  avg # of iterations =  5.2

     negative rho (up, down):  1.327E-03 0.000E+00

     total cpu time spent up to now is     2166.0 secs

     total energy              =    -675.01163096 Ry
     estimated scf accuracy    <       0.00004648 Ry

     iteration #533     ecut=    80.00 Ry     beta= 0.10
     Davidson diagonalization with overlap
     ethr =  5.08E-09,  avg # of iterations =  4.2

     negative rho (up, down):  1.323E-03 0.000E+00

     total cpu time spent up to now is     2170.7 secs

     total energy              =    -675.01162959 Ry
     estimated scf accuracy    <       0.00000948 Ry

     iteration #534     ecut=    80.00 Ry     beta= 0.10
     Davidson diagonalization with overlap
     ethr =  5.08E-09,  avg # of iterations =  3.8

     negative rho (up, down):  1.320E-03 0.000E+00

     total cpu time spent up to now is     2175.3 secs

     total energy              =    -675.01162280 Ry
     estimated scf accuracy    <       0.00001785 Ry

     iteration #535     ecut=    80.00 Ry     beta= 0.10
     Davidson diagonalization with overlap
     ethr =  5.08E-09,  avg # of iterations =  4.2

     negative rho (up, down):  1.320E-03 0.000E+00

     total cpu time spent up to now is     2179.9 secs

     total energy              =    -675.01161629 Ry
     estimated scf accuracy    <       0.00004446 Ry

     iteration #536     ecut=    80.00 Ry     beta= 0.10
     Davidson diagonalization with overlap
     ethr =  5.08E-09,  avg # of iterations =  2.0

     negative rho (up, down):  1.323E-03 0.000E+00

     total cpu time spent up to now is     2183.6 secs

     total energy              =    -675.01162258 Ry
     estimated scf accuracy    <       0.00005257 Ry

     iteration #537     ecut=    80.00 Ry     beta= 0.10
     Davidson diagonalization with overlap
     ethr =  5.08E-09,  avg # of iterations =  2.0

     negative rho (up, down):  1.316E-03 0.000E+00

     total cpu time spent up to now is     2187.5 secs

     total energy              =    -675.01162101 Ry
     estimated scf accuracy    <       0.00003402 Ry

     iteration #538     ecut=    80.00 Ry     beta= 0.10
     Davidson diagonalization with overlap
     ethr =  5.08E-09,  avg # of iterations =  1.0

     negative rho (up, down):  1.315E-03 0.000E+00

     total cpu time spent up to now is     2191.0 secs

     total energy              =    -675.01162072 Ry
     estimated scf accuracy    <       0.00003696 Ry

     iteration #539     ecut=    80.00 Ry     beta= 0.10
     Davidson diagonalization with overlap
     ethr =  5.08E-09,  avg # of iterations =  1.0

     negative rho (up, down):  1.316E-03 0.000E+00

     total cpu time spent up to now is     2194.5 secs

     total energy              =    -675.01162241 Ry
     estimated scf accuracy    <       0.00003813 Ry

     iteration #540     ecut=    80.00 Ry     beta= 0.10
     Davidson diagonalization with overlap
     ethr =  5.08E-09,  avg # of iterations =  1.0

     negative rho (up, down):  1.316E-03 0.000E+00

     total cpu time spent up to now is     2198.0 secs

     total energy              =    -675.01161308 Ry
     estimated scf accuracy    <       0.00003291 Ry

     iteration #541     ecut=    80.00 Ry     beta= 0.10
     Davidson diagonalization with overlap
     ethr =  5.08E-09,  avg # of iterations =  4.2

     negative rho (up, down):  1.322E-03 0.000E+00

     total cpu time spent up to now is     2202.6 secs

     total energy              =    -675.01168159 Ry
     estimated scf accuracy    <       0.00007223 Ry

     iteration #542     ecut=    80.00 Ry     beta= 0.10
     Davidson diagonalization with overlap
     ethr =  5.08E-09,  avg # of iterations =  6.2

     negative rho (up, down):  1.325E-03 0.000E+00

     total cpu time spent up to now is     2208.3 secs

     total energy              =    -675.01164123 Ry
     estimated scf accuracy    <       0.00001288 Ry

     iteration #543     ecut=    80.00 Ry     beta= 0.10
     Davidson diagonalization with overlap
     ethr =  5.08E-09,  avg # of iterations =  3.8

     negative rho (up, down):  1.332E-03 0.000E+00

     total cpu time spent up to now is     2212.5 secs

     total energy              =    -675.01166363 Ry
     estimated scf accuracy    <       0.00003377 Ry

     iteration #544     ecut=    80.00 Ry     beta= 0.10
     Davidson diagonalization with overlap
     ethr =  5.08E-09,  avg # of iterations =  4.8

     negative rho (up, down):  1.329E-03 0.000E+00

     total cpu time spent up to now is     2217.5 secs

     total energy              =    -675.01163320 Ry
     estimated scf accuracy    <       0.00027444 Ry

     iteration #545     ecut=    80.00 Ry     beta= 0.10
     Davidson diagonalization with overlap
     ethr =  5.08E-09,  avg # of iterations =  4.8

     negative rho (up, down):  1.323E-03 0.000E+00

     total cpu time spent up to now is     2222.3 secs

     total energy              =    -675.01163627 Ry
     estimated scf accuracy    <       0.00004127 Ry

     iteration #546     ecut=    80.00 Ry     beta= 0.10
     Davidson diagonalization with overlap
     ethr =  5.08E-09,  avg # of iterations =  3.8

     negative rho (up, down):  1.320E-03 0.000E+00

     total cpu time spent up to now is     2226.5 secs

     total energy              =    -675.01163505 Ry
     estimated scf accuracy    <       0.00001621 Ry

     iteration #547     ecut=    80.00 Ry     beta= 0.10
     Davidson diagonalization with overlap
     ethr =  5.08E-09,  avg # of iterations =  2.0

     negative rho (up, down):  1.319E-03 0.000E+00

     total cpu time spent up to now is     2230.3 secs

     total energy              =    -675.01163295 Ry
     estimated scf accuracy    <       0.00001205 Ry

     iteration #548     ecut=    80.00 Ry     beta= 0.10
     Davidson diagonalization with overlap
     ethr =  5.08E-09,  avg # of iterations =  2.0

     negative rho (up, down):  1.321E-03 0.000E+00

     total cpu time spent up to now is     2234.2 secs

     total energy              =    -675.01163332 Ry
     estimated scf accuracy    <       0.00001028 Ry

     iteration #549     ecut=    80.00 Ry     beta= 0.10
     Davidson diagonalization with overlap
     ethr =  5.08E-09,  avg # of iterations =  1.0

     negative rho (up, down):  1.322E-03 0.000E+00

     total cpu time spent up to now is     2237.7 secs

     total energy              =    -675.01163488 Ry
     estimated scf accuracy    <       0.00000943 Ry

     iteration #550     ecut=    80.00 Ry     beta= 0.10
     Davidson diagonalization with overlap
     ethr =  5.08E-09,  avg # of iterations =  2.0

     negative rho (up, down):  1.317E-03 0.000E+00

     total cpu time spent up to now is     2241.4 secs

     total energy              =    -675.01163144 Ry
     estimated scf accuracy    <       0.00001012 Ry

     iteration #551     ecut=    80.00 Ry     beta= 0.10
     Davidson diagonalization with overlap
     ethr =  5.08E-09,  avg # of iterations =  4.2

     negative rho (up, down):  1.315E-03 0.000E+00

     total cpu time spent up to now is     2246.0 secs

     total energy              =    -675.01162703 Ry
     estimated scf accuracy    <       0.00001603 Ry

     iteration #552     ecut=    80.00 Ry     beta= 0.10
     Davidson diagonalization with overlap
     ethr =  5.08E-09,  avg # of iterations =  2.0

     negative rho (up, down):  1.316E-03 0.000E+00

     total cpu time spent up to now is     2249.8 secs

     total energy              =    -675.01162716 Ry
     estimated scf accuracy    <       0.00002045 Ry

     iteration #553     ecut=    80.00 Ry     beta= 0.10
     Davidson diagonalization with overlap
     ethr =  5.08E-09,  avg # of iterations =  1.0

     negative rho (up, down):  1.316E-03 0.000E+00

     total cpu time spent up to now is     2253.3 secs

     total energy              =    -675.01163208 Ry
     estimated scf accuracy    <       0.00001927 Ry

     iteration #554     ecut=    80.00 Ry     beta= 0.10
     Davidson diagonalization with overlap
     ethr =  5.08E-09,  avg # of iterations =  2.0

     negative rho (up, down):  1.316E-03 0.000E+00

     total cpu time spent up to now is     2257.1 secs

     total energy              =    -675.01163593 Ry
     estimated scf accuracy    <       0.00000978 Ry

     iteration #555     ecut=    80.00 Ry     beta= 0.10
     Davidson diagonalization with overlap
     ethr =  5.08E-09,  avg # of iterations =  4.0

     negative rho (up, down):  1.317E-03 0.000E+00

     total cpu time spent up to now is     2261.5 secs

     total energy              =    -675.01163758 Ry
     estimated scf accuracy    <       0.00000998 Ry

     iteration #556     ecut=    80.00 Ry     beta= 0.10
     Davidson diagonalization with overlap
     ethr =  5.08E-09,  avg # of iterations =  2.0

     negative rho (up, down):  1.319E-03 0.000E+00

     total cpu time spent up to now is     2265.3 secs

     total energy              =    -675.01163431 Ry
     estimated scf accuracy    <       0.00001591 Ry

     iteration #557     ecut=    80.00 Ry     beta= 0.10
     Davidson diagonalization with overlap
     ethr =  5.08E-09,  avg # of iterations =  2.0

     negative rho (up, down):  1.320E-03 0.000E+00

     total cpu time spent up to now is     2269.2 secs

     total energy              =    -675.01163376 Ry
     estimated scf accuracy    <       0.00001044 Ry

     iteration #558     ecut=    80.00 Ry     beta= 0.10
     Davidson diagonalization with overlap
     ethr =  5.08E-09,  avg # of iterations =  1.0

     negative rho (up, down):  1.323E-03 0.000E+00

     total cpu time spent up to now is     2272.7 secs

     total energy              =    -675.01163365 Ry
     estimated scf accuracy    <       0.00000991 Ry

     iteration #559     ecut=    80.00 Ry     beta= 0.10
     Davidson diagonalization with overlap
     ethr =  5.08E-09,  avg # of iterations =  1.0

     negative rho (up, down):  1.324E-03 0.000E+00

     total cpu time spent up to now is     2276.2 secs

     total energy              =    -675.01163347 Ry
     estimated scf accuracy    <       0.00000982 Ry

     iteration #560     ecut=    80.00 Ry     beta= 0.10
     Davidson diagonalization with overlap
     ethr =  5.08E-09,  avg # of iterations =  1.0

     negative rho (up, down):  1.323E-03 0.000E+00

     total cpu time spent up to now is     2279.7 secs

     total energy              =    -675.01163471 Ry
     estimated scf accuracy    <       0.00000955 Ry

     iteration #561     ecut=    80.00 Ry     beta= 0.10
     Davidson diagonalization with overlap
     ethr =  5.08E-09,  avg # of iterations =  1.0

     negative rho (up, down):  1.322E-03 0.000E+00

     total cpu time spent up to now is     2283.2 secs

     total energy              =    -675.01163364 Ry
     estimated scf accuracy    <       0.00000980 Ry

     iteration #562     ecut=    80.00 Ry     beta= 0.10
     Davidson diagonalization with overlap
     ethr =  5.08E-09,  avg # of iterations =  1.0

     negative rho (up, down):  1.324E-03 0.000E+00

     total cpu time spent up to now is     2286.7 secs

     total energy              =    -675.01163054 Ry
     estimated scf accuracy    <       0.00000966 Ry

     iteration #563     ecut=    80.00 Ry     beta= 0.10
     Davidson diagonalization with overlap
     ethr =  5.08E-09,  avg # of iterations =  4.0

     negative rho (up, down):  1.330E-03 0.000E+00

     total cpu time spent up to now is     2291.1 secs

     total energy              =    -675.01164429 Ry
     estimated scf accuracy    <       0.00001709 Ry

     iteration #564     ecut=    80.00 Ry     beta= 0.10
     Davidson diagonalization with overlap
     ethr =  5.08E-09,  avg # of iterations =  4.8

     negative rho (up, down):  1.315E-03 0.000E+00

     total cpu time spent up to now is     2295.9 secs

     total energy              =    -675.01163545 Ry
     estimated scf accuracy    <       0.00001481 Ry

     iteration #565     ecut=    80.00 Ry     beta= 0.10
     Davidson diagonalization with overlap
     ethr =  5.08E-09,  avg # of iterations =  5.8

     negative rho (up, down):  1.322E-03 0.000E+00

     total cpu time spent up to now is     2301.4 secs

     total energy              =    -675.01168858 Ry
     estimated scf accuracy    <       0.00004930 Ry

     iteration #566     ecut=    80.00 Ry     beta= 0.10
     Davidson diagonalization with overlap
     ethr =  5.08E-09,  avg # of iterations =  6.2

     negative rho (up, down):  1.318E-03 0.000E+00

     total cpu time spent up to now is     2307.1 secs

     total energy              =    -675.01162869 Ry
     estimated scf accuracy    <       0.00005450 Ry

     iteration #567     ecut=    80.00 Ry     beta= 0.10
     Davidson diagonalization with overlap
     ethr =  5.08E-09,  avg # of iterations =  4.8

     negative rho (up, down):  1.319E-03 0.000E+00

     total cpu time spent up to now is     2312.2 secs

     total energy              =    -675.01162985 Ry
     estimated scf accuracy    <       0.00001140 Ry

     iteration #568     ecut=    80.00 Ry     beta= 0.10
     Davidson diagonalization with overlap
     ethr =  5.08E-09,  avg # of iterations =  1.0

     negative rho (up, down):  1.322E-03 0.000E+00

     total cpu time spent up to now is     2315.7 secs

     total energy              =    -675.01164990 Ry
     estimated scf accuracy    <       0.00001288 Ry

     iteration #569     ecut=    80.00 Ry     beta= 0.10
     Davidson diagonalization with overlap
     ethr =  5.08E-09,  avg # of iterations =  4.8

     negative rho (up, down):  1.322E-03 0.000E+00

     total cpu time spent up to now is     2320.7 secs

     total energy              =    -675.01164135 Ry
     estimated scf accuracy    <       0.00003913 Ry

     iteration #570     ecut=    80.00 Ry     beta= 0.10
     Davidson diagonalization with overlap
     ethr =  5.08E-09,  avg # of iterations =  1.0

     negative rho (up, down):  1.321E-03 0.000E+00

     total cpu time spent up to now is     2324.2 secs

     total energy              =    -675.01163372 Ry
     estimated scf accuracy    <       0.00003446 Ry

     iteration #571     ecut=    80.00 Ry     beta= 0.10
     Davidson diagonalization with overlap
     ethr =  5.08E-09,  avg # of iterations =  4.0

     negative rho (up, down):  1.317E-03 0.000E+00

     total cpu time spent up to now is     2328.6 secs

     total energy              =    -675.01163323 Ry
     estimated scf accuracy    <       0.00001038 Ry

     iteration #572     ecut=    80.00 Ry     beta= 0.10
     Davidson diagonalization with overlap
     ethr =  5.08E-09,  avg # of iterations =  2.0

     negative rho (up, down):  1.316E-03 0.000E+00

     total cpu time spent up to now is     2332.4 secs

     total energy              =    -675.01163009 Ry
     estimated scf accuracy    <       0.00000978 Ry

     iteration #573     ecut=    80.00 Ry     beta= 0.10
     Davidson diagonalization with overlap
     ethr =  5.08E-09,  avg # of iterations =  4.8

     negative rho (up, down):  1.316E-03 0.000E+00

     total cpu time spent up to now is     2337.1 secs

     total energy              =    -675.01162911 Ry
     estimated scf accuracy    <       0.00002653 Ry

     iteration #574     ecut=    80.00 Ry     beta= 0.10
     Davidson diagonalization with overlap
     ethr =  5.08E-09,  avg # of iterations =  2.0

     negative rho (up, down):  1.316E-03 0.000E+00

     total cpu time spent up to now is     2341.0 secs

     total energy              =    -675.01162561 Ry
     estimated scf accuracy    <       0.00001500 Ry

     iteration #575     ecut=    80.00 Ry     beta= 0.10
     Davidson diagonalization with overlap
     ethr =  5.08E-09,  avg # of iterations =  2.0

     negative rho (up, down):  1.314E-03 0.000E+00

     total cpu time spent up to now is     2344.8 secs

     total energy              =    -675.01162146 Ry
     estimated scf accuracy    <       0.00002722 Ry

     iteration #576     ecut=    80.00 Ry     beta= 0.10
     Davidson diagonalization with overlap
     ethr =  5.08E-09,  avg # of iterations =  2.0

     negative rho (up, down):  1.314E-03 0.000E+00

     total cpu time spent up to now is     2348.7 secs

     total energy              =    -675.01162050 Ry
     estimated scf accuracy    <       0.00003997 Ry

     iteration #577     ecut=    80.00 Ry     beta= 0.10
     Davidson diagonalization with overlap
     ethr =  5.08E-09,  avg # of iterations =  1.0

     negative rho (up, down):  1.316E-03 0.000E+00

     total cpu time spent up to now is     2352.2 secs

     total energy              =    -675.01162140 Ry
     estimated scf accuracy    <       0.00003993 Ry

     iteration #578     ecut=    80.00 Ry     beta= 0.10
     Davidson diagonalization with overlap
     ethr =  5.08E-09,  avg # of iterations =  1.0

     negative rho (up, down):  1.317E-03 0.000E+00

     total cpu time spent up to now is     2355.7 secs

     total energy              =    -675.01163141 Ry
     estimated scf accuracy    <       0.00003651 Ry

     iteration #579     ecut=    80.00 Ry     beta= 0.10
     Davidson diagonalization with overlap
     ethr =  5.08E-09,  avg # of iterations =  3.8

     negative rho (up, down):  1.321E-03 0.000E+00

     total cpu time spent up to now is     2360.0 secs

     total energy              =    -675.01165725 Ry
     estimated scf accuracy    <       0.00001505 Ry

     iteration #580     ecut=    80.00 Ry     beta= 0.10
     Davidson diagonalization with overlap
     ethr =  5.08E-09,  avg # of iterations =  5.2

     negative rho (up, down):  1.317E-03 0.000E+00

     total cpu time spent up to now is     2365.3 secs

     total energy              =    -675.01162745 Ry
     estimated scf accuracy    <       0.00005614 Ry

     iteration #581     ecut=    80.00 Ry     beta= 0.10
     Davidson diagonalization with overlap
     ethr =  5.08E-09,  avg # of iterations =  5.2

     negative rho (up, down):  1.317E-03 0.000E+00

     total cpu time spent up to now is     2370.6 secs

     total energy              =    -675.01162241 Ry
     estimated scf accuracy    <       0.00001735 Ry

     iteration #582     ecut=    80.00 Ry     beta= 0.10
     Davidson diagonalization with overlap
     ethr =  5.08E-09,  avg # of iterations =  4.8

     negative rho (up, down):  1.318E-03 0.000E+00

     total cpu time spent up to now is     2375.7 secs

     total energy              =    -675.01162399 Ry
     estimated scf accuracy    <       0.00006702 Ry

     iteration #583     ecut=    80.00 Ry     beta= 0.10
     Davidson diagonalization with overlap
     ethr =  5.08E-09,  avg # of iterations =  3.8

     negative rho (up, down):  1.315E-03 0.000E+00

     total cpu time spent up to now is     2380.1 secs

     total energy              =    -675.01161604 Ry
     estimated scf accuracy    <       0.00003762 Ry

     iteration #584     ecut=    80.00 Ry     beta= 0.10
     Davidson diagonalization with overlap
     ethr =  5.08E-09,  avg # of iterations =  2.0

     negative rho (up, down):  1.316E-03 0.000E+00

     total cpu time spent up to now is     2383.9 secs

     total energy              =    -675.01161926 Ry
     estimated scf accuracy    <       0.00005570 Ry

     iteration #585     ecut=    80.00 Ry     beta= 0.10
     Davidson diagonalization with overlap
     ethr =  5.08E-09,  avg # of iterations =  2.0

     negative rho (up, down):  1.317E-03 0.000E+00

     total cpu time spent up to now is     2387.7 secs

     total energy              =    -675.01161931 Ry
     estimated scf accuracy    <       0.00004276 Ry

     iteration #586     ecut=    80.00 Ry     beta= 0.10
     Davidson diagonalization with overlap
     ethr =  5.08E-09,  avg # of iterations =  1.0

     negative rho (up, down):  1.313E-03 0.000E+00

     total cpu time spent up to now is     2391.1 secs

     total energy              =    -675.01161742 Ry
     estimated scf accuracy    <       0.00004138 Ry

     iteration #587     ecut=    80.00 Ry     beta= 0.10
     Davidson diagonalization with overlap
     ethr =  5.08E-09,  avg # of iterations =  1.0

     negative rho (up, down):  1.322E-03 0.000E+00

     total cpu time spent up to now is     2394.6 secs

     total energy              =    -675.01164034 Ry
     estimated scf accuracy    <       0.00004873 Ry

     iteration #588     ecut=    80.00 Ry     beta= 0.10
     Davidson diagonalization with overlap
     ethr =  5.08E-09,  avg # of iterations =  4.4

     negative rho (up, down):  1.318E-03 0.000E+00

     total cpu time spent up to now is     2399.4 secs

     total energy              =    -675.01162891 Ry
     estimated scf accuracy    <       0.00001097 Ry

     iteration #589     ecut=    80.00 Ry     beta= 0.10
     Davidson diagonalization with overlap
     ethr =  5.08E-09,  avg # of iterations =  2.0

     negative rho (up, down):  1.321E-03 0.000E+00

     total cpu time spent up to now is     2403.2 secs

     total energy              =    -675.01164546 Ry
     estimated scf accuracy    <       0.00001561 Ry

     iteration #590     ecut=    80.00 Ry     beta= 0.10
     Davidson diagonalization with overlap
     ethr =  5.08E-09,  avg # of iterations =  4.4

     negative rho (up, down):  1.322E-03 0.000E+00

     total cpu time spent up to now is     2408.1 secs

     total energy              =    -675.01164866 Ry
     estimated scf accuracy    <       0.00001868 Ry

     iteration #591     ecut=    80.00 Ry     beta= 0.10
     Davidson diagonalization with overlap
     ethr =  5.08E-09,  avg # of iterations =  4.2

     negative rho (up, down):  1.319E-03 0.000E+00

     total cpu time spent up to now is     2412.7 secs

     total energy              =    -675.01163948 Ry
     estimated scf accuracy    <       0.00009197 Ry

     iteration #592     ecut=    80.00 Ry     beta= 0.10
     Davidson diagonalization with overlap
     ethr =  5.08E-09,  avg # of iterations =  3.8

     negative rho (up, down):  1.316E-03 0.000E+00

     total cpu time spent up to now is     2416.9 secs

     total energy              =    -675.01163381 Ry
     estimated scf accuracy    <       0.00003261 Ry

     iteration #593     ecut=    80.00 Ry     beta= 0.10
     Davidson diagonalization with overlap
     ethr =  5.08E-09,  avg # of iterations =  4.2

     negative rho (up, down):  1.312E-03 0.000E+00

     total cpu time spent up to now is     2421.5 secs

     total energy              =    -675.01163102 Ry
     estimated scf accuracy    <       0.00001030 Ry

     iteration #594     ecut=    80.00 Ry     beta= 0.10
     Davidson diagonalization with overlap
     ethr =  5.08E-09,  avg # of iterations =  4.2

     negative rho (up, down):  1.316E-03 0.000E+00

     total cpu time spent up to now is     2426.1 secs

     total energy              =    -675.01163259 Ry
     estimated scf accuracy    <       0.00001761 Ry

     iteration #595     ecut=    80.00 Ry     beta= 0.10
     Davidson diagonalization with overlap
     ethr =  5.08E-09,  avg # of iterations =  2.0

     negative rho (up, down):  1.317E-03 0.000E+00

     total cpu time spent up to now is     2429.9 secs

     total energy              =    -675.01163267 Ry
     estimated scf accuracy    <       0.00000897 Ry

     iteration #596     ecut=    80.00 Ry     beta= 0.10
     Davidson diagonalization with overlap
     ethr =  5.08E-09,  avg # of iterations =  2.0

     negative rho (up, down):  1.314E-03 0.000E+00

     total cpu time spent up to now is     2433.8 secs

     total energy              =    -675.01162987 Ry
     estimated scf accuracy    <       0.00000807 Ry

     iteration #597     ecut=    80.00 Ry     beta= 0.10
     Davidson diagonalization with overlap
     ethr =  5.08E-09,  avg # of iterations =  4.0

     negative rho (up, down):  1.315E-03 0.000E+00

     total cpu time spent up to now is     2438.3 secs

     total energy              =    -675.01163036 Ry
     estimated scf accuracy    <       0.00002866 Ry

     iteration #598     ecut=    80.00 Ry     beta= 0.10
     Davidson diagonalization with overlap
     ethr =  5.08E-09,  avg # of iterations =  2.2

     negative rho (up, down):  1.312E-03 0.000E+00

     total cpu time spent up to now is     2442.2 secs

     total energy              =    -675.01162843 Ry
     estimated scf accuracy    <       0.00001346 Ry

     iteration #599     ecut=    80.00 Ry     beta= 0.10
     Davidson diagonalization with overlap
     ethr =  5.08E-09,  avg # of iterations =  1.0

     negative rho (up, down):  1.314E-03 0.000E+00

     total cpu time spent up to now is     2445.7 secs

     total energy              =    -675.01164309 Ry
     estimated scf accuracy    <       0.00001508 Ry

     iteration #600     ecut=    80.00 Ry     beta= 0.10
     Davidson diagonalization with overlap
     ethr =  5.08E-09,  avg # of iterations =  4.8

     negative rho (up, down):  1.314E-03 0.000E+00

     total cpu time spent up to now is     2450.5 secs

     total energy              =    -675.01163360 Ry
     estimated scf accuracy    <       0.00001460 Ry

     iteration #601     ecut=    80.00 Ry     beta= 0.10
     Davidson diagonalization with overlap
     ethr =  5.08E-09,  avg # of iterations =  3.0

     negative rho (up, down):  1.317E-03 0.000E+00

     total cpu time spent up to now is     2454.6 secs

     total energy              =    -675.01164034 Ry
     estimated scf accuracy    <       0.00000983 Ry

     iteration #602     ecut=    80.00 Ry     beta= 0.10
     Davidson diagonalization with overlap
     ethr =  5.08E-09,  avg # of iterations =  3.4

     negative rho (up, down):  1.318E-03 0.000E+00

     total cpu time spent up to now is     2458.9 secs

     total energy              =    -675.01163946 Ry
     estimated scf accuracy    <       0.00002327 Ry

     iteration #603     ecut=    80.00 Ry     beta= 0.10
     Davidson diagonalization with overlap
     ethr =  5.08E-09,  avg # of iterations =  1.0

     negative rho (up, down):  1.318E-03 0.000E+00

     total cpu time spent up to now is     2462.4 secs

     total energy              =    -675.01165462 Ry
     estimated scf accuracy    <       0.00002441 Ry

     iteration #604     ecut=    80.00 Ry     beta= 0.10
     Davidson diagonalization with overlap
     ethr =  5.08E-09,  avg # of iterations =  4.6

     negative rho (up, down):  1.317E-03 0.000E+00

     total cpu time spent up to now is     2467.1 secs

     total energy              =    -675.01161883 Ry
     estimated scf accuracy    <       0.00015634 Ry

     iteration #605     ecut=    80.00 Ry     beta= 0.10
     Davidson diagonalization with overlap
     ethr =  5.08E-09,  avg # of iterations =  5.2

     negative rho (up, down):  1.315E-03 0.000E+00

     total cpu time spent up to now is     2472.4 secs

     total energy              =    -675.01162920 Ry
     estimated scf accuracy    <       0.00000995 Ry

     iteration #606     ecut=    80.00 Ry     beta= 0.10
     Davidson diagonalization with overlap
     ethr =  5.08E-09,  avg # of iterations =  4.0

     negative rho (up, down):  1.315E-03 0.000E+00

     total cpu time spent up to now is     2476.9 secs

     total energy              =    -675.01162170 Ry
     estimated scf accuracy    <       0.00001986 Ry

     iteration #607     ecut=    80.00 Ry     beta= 0.10
     Davidson diagonalization with overlap
     ethr =  5.08E-09,  avg # of iterations =  4.0

     negative rho (up, down):  1.316E-03 0.000E+00

     total cpu time spent up to now is     2481.4 secs

     total energy              =    -675.01163395 Ry
     estimated scf accuracy    <       0.00004750 Ry

     iteration #608     ecut=    80.00 Ry     beta= 0.10
     Davidson diagonalization with overlap
     ethr =  5.08E-09,  avg # of iterations =  4.2

     negative rho (up, down):  1.316E-03 0.000E+00

     total cpu time spent up to now is     2486.0 secs

     total energy              =    -675.01162832 Ry
     estimated scf accuracy    <       0.00001542 Ry

     iteration #609     ecut=    80.00 Ry     beta= 0.10
     Davidson diagonalization with overlap
     ethr =  5.08E-09,  avg # of iterations =  1.0

     negative rho (up, down):  1.316E-03 0.000E+00

     total cpu time spent up to now is     2489.5 secs

     total energy              =    -675.01162821 Ry
     estimated scf accuracy    <       0.00001533 Ry

     iteration #610     ecut=    80.00 Ry     beta= 0.10
     Davidson diagonalization with overlap
     ethr =  5.08E-09,  avg # of iterations =  1.0

     negative rho (up, down):  1.316E-03 0.000E+00

     total cpu time spent up to now is     2493.0 secs

     total energy              =    -675.01163270 Ry
     estimated scf accuracy    <       0.00001582 Ry

     iteration #611     ecut=    80.00 Ry     beta= 0.10
     Davidson diagonalization with overlap
     ethr =  5.08E-09,  avg # of iterations =  2.0

     negative rho (up, down):  1.317E-03 0.000E+00

     total cpu time spent up to now is     2496.9 secs

     total energy              =    -675.01163046 Ry
     estimated scf accuracy    <       0.00000871 Ry

     iteration #612     ecut=    80.00 Ry     beta= 0.10
     Davidson diagonalization with overlap
     ethr =  5.08E-09,  avg # of iterations =  1.0

     negative rho (up, down):  1.318E-03 0.000E+00

     total cpu time spent up to now is     2500.4 secs

     total energy              =    -675.01162862 Ry
     estimated scf accuracy    <       0.00001160 Ry

     iteration #613     ecut=    80.00 Ry     beta= 0.10
     Davidson diagonalization with overlap
     ethr =  5.08E-09,  avg # of iterations =  2.0

     negative rho (up, down):  1.323E-03 0.000E+00

     total cpu time spent up to now is     2504.2 secs

     total energy              =    -675.01165375 Ry
     estimated scf accuracy    <       0.00001659 Ry

     iteration #614     ecut=    80.00 Ry     beta= 0.10
     Davidson diagonalization with overlap
     ethr =  5.08E-09,  avg # of iterations =  4.8

     negative rho (up, down):  1.319E-03 0.000E+00

     total cpu time spent up to now is     2509.3 secs

     total energy              =    -675.01163020 Ry
     estimated scf accuracy    <       0.00003883 Ry

     iteration #615     ecut=    80.00 Ry     beta= 0.10
     Davidson diagonalization with overlap
     ethr =  5.08E-09,  avg # of iterations =  4.8

     negative rho (up, down):  1.320E-03 0.000E+00

     total cpu time spent up to now is     2514.3 secs

     total energy              =    -675.01162815 Ry
     estimated scf accuracy    <       0.00001284 Ry

     iteration #616     ecut=    80.00 Ry     beta= 0.10
     Davidson diagonalization with overlap
     ethr =  5.08E-09,  avg # of iterations =  2.0

     negative rho (up, down):  1.321E-03 0.000E+00

     total cpu time spent up to now is     2518.1 secs

     total energy              =    -675.01162896 Ry
     estimated scf accuracy    <       0.00001783 Ry

     iteration #617     ecut=    80.00 Ry     beta= 0.10
     Davidson diagonalization with overlap
     ethr =  5.08E-09,  avg # of iterations =  1.0

     negative rho (up, down):  1.321E-03 0.000E+00

     total cpu time spent up to now is     2521.6 secs

     total energy              =    -675.01162868 Ry
     estimated scf accuracy    <       0.00001430 Ry

     iteration #618     ecut=    80.00 Ry     beta= 0.10
     Davidson diagonalization with overlap
     ethr =  5.08E-09,  avg # of iterations =  1.0

     negative rho (up, down):  1.320E-03 0.000E+00

     total cpu time spent up to now is     2525.1 secs

     total energy              =    -675.01162700 Ry
     estimated scf accuracy    <       0.00001498 Ry

     iteration #619     ecut=    80.00 Ry     beta= 0.10
     Davidson diagonalization with overlap
     ethr =  5.08E-09,  avg # of iterations =  2.0

     negative rho (up, down):  1.321E-03 0.000E+00

     total cpu time spent up to now is     2528.9 secs

     total energy              =    -675.01163432 Ry
     estimated scf accuracy    <       0.00002090 Ry

     iteration #620     ecut=    80.00 Ry     beta= 0.10
     Davidson diagonalization with overlap
     ethr =  5.08E-09,  avg # of iterations =  3.0

     negative rho (up, down):  1.319E-03 0.000E+00

     total cpu time spent up to now is     2533.1 secs

     total energy              =    -675.01163156 Ry
     estimated scf accuracy    <       0.00000901 Ry

     iteration #621     ecut=    80.00 Ry     beta= 0.10
     Davidson diagonalization with overlap
     ethr =  5.08E-09,  avg # of iterations =  1.0

     negative rho (up, down):  1.314E-03 0.000E+00

     total cpu time spent up to now is     2536.6 secs

     total energy              =    -675.01162848 Ry
     estimated scf accuracy    <       0.00000945 Ry

     iteration #622     ecut=    80.00 Ry     beta= 0.10
     Davidson diagonalization with overlap
     ethr =  5.08E-09,  avg # of iterations =  4.2

     negative rho (up, down):  1.324E-03 0.000E+00

     total cpu time spent up to now is     2541.2 secs

     total energy              =    -675.01169127 Ry
     estimated scf accuracy    <       0.00003049 Ry

     iteration #623     ecut=    80.00 Ry     beta= 0.10
     Davidson diagonalization with overlap
     ethr =  5.08E-09,  avg # of iterations =  6.2

     negative rho (up, down):  1.317E-03 0.000E+00

     total cpu time spent up to now is     2546.9 secs

     total energy              =    -675.01160739 Ry
     estimated scf accuracy    <       0.00015888 Ry

     iteration #624     ecut=    80.00 Ry     beta= 0.10
     Davidson diagonalization with overlap
     ethr =  5.08E-09,  avg # of iterations =  6.6

     negative rho (up, down):  1.320E-03 0.000E+00

     total cpu time spent up to now is     2552.8 secs

     total energy              =    -675.01165570 Ry
     estimated scf accuracy    <       0.00004753 Ry

     iteration #625     ecut=    80.00 Ry     beta= 0.10
     Davidson diagonalization with overlap
     ethr =  5.08E-09,  avg # of iterations =  5.0

     negative rho (up, down):  1.319E-03 0.000E+00

     total cpu time spent up to now is     2558.1 secs

     total energy              =    -675.01163594 Ry
     estimated scf accuracy    <       0.00000979 Ry

     iteration #626     ecut=    80.00 Ry     beta= 0.10
     Davidson diagonalization with overlap
     ethr =  5.08E-09,  avg # of iterations =  2.0

     negative rho (up, down):  1.317E-03 0.000E+00

     total cpu time spent up to now is     2561.8 secs

     total energy              =    -675.01163554 Ry
     estimated scf accuracy    <       0.00001215 Ry

     iteration #627     ecut=    80.00 Ry     beta= 0.10
     Davidson diagonalization with overlap
     ethr =  5.08E-09,  avg # of iterations =  5.4

     negative rho (up, down):  1.315E-03 0.000E+00

     total cpu time spent up to now is     2567.2 secs

     total energy              =    -675.01163442 Ry
     estimated scf accuracy    <       0.00005097 Ry

     iteration #628     ecut=    80.00 Ry     beta= 0.10
     Davidson diagonalization with overlap
     ethr =  5.08E-09,  avg # of iterations =  4.2

     negative rho (up, down):  1.320E-03 0.000E+00

     total cpu time spent up to now is     2571.8 secs

     total energy              =    -675.01164541 Ry
     estimated scf accuracy    <       0.00001592 Ry

     iteration #629     ecut=    80.00 Ry     beta= 0.10
     Davidson diagonalization with overlap
     ethr =  5.08E-09,  avg # of iterations =  4.8

     negative rho (up, down):  1.324E-03 0.000E+00

     total cpu time spent up to now is     2576.8 secs

     total energy              =    -675.01165522 Ry
     estimated scf accuracy    <       0.00001749 Ry

     iteration #630     ecut=    80.00 Ry     beta= 0.10
     Davidson diagonalization with overlap
     ethr =  5.08E-09,  avg # of iterations =  4.8

     negative rho (up, down):  1.321E-03 0.000E+00

     total cpu time spent up to now is     2581.8 secs

     total energy              =    -675.01164356 Ry
     estimated scf accuracy    <       0.00017018 Ry

     iteration #631     ecut=    80.00 Ry     beta= 0.10
     Davidson diagonalization with overlap
     ethr =  5.08E-09,  avg # of iterations =  3.8

     negative rho (up, down):  1.317E-03 0.000E+00

     total cpu time spent up to now is     2586.0 secs

     total energy              =    -675.01162942 Ry
     estimated scf accuracy    <       0.00006224 Ry

     iteration #632     ecut=    80.00 Ry     beta= 0.10
     Davidson diagonalization with overlap
     ethr =  5.08E-09,  avg # of iterations =  4.8

     negative rho (up, down):  1.318E-03 0.000E+00

     total cpu time spent up to now is     2591.0 secs

     total energy              =    -675.01163527 Ry
     estimated scf accuracy    <       0.00000948 Ry

     iteration #633     ecut=    80.00 Ry     beta= 0.10
     Davidson diagonalization with overlap
     ethr =  5.08E-09,  avg # of iterations =  2.0

     negative rho (up, down):  1.318E-03 0.000E+00

     total cpu time spent up to now is     2594.8 secs

     total energy              =    -675.01163441 Ry
     estimated scf accuracy    <       0.00000974 Ry

     iteration #634     ecut=    80.00 Ry     beta= 0.10
     Davidson diagonalization with overlap
     ethr =  5.08E-09,  avg # of iterations =  1.0

     negative rho (up, down):  1.319E-03 0.000E+00

     total cpu time spent up to now is     2598.3 secs

     total energy              =    -675.01163650 Ry
     estimated scf accuracy    <       0.00000985 Ry

     iteration #635     ecut=    80.00 Ry     beta= 0.10
     Davidson diagonalization with overlap
     ethr =  5.08E-09,  avg # of iterations =  2.0

     negative rho (up, down):  1.318E-03 0.000E+00

     total cpu time spent up to now is     2602.2 secs

     total energy              =    -675.01163538 Ry
     estimated scf accuracy    <       0.00001312 Ry

     iteration #636     ecut=    80.00 Ry     beta= 0.10
     Davidson diagonalization with overlap
     ethr =  5.08E-09,  avg # of iterations =  1.0

     negative rho (up, down):  1.317E-03 0.000E+00

     total cpu time spent up to now is     2605.7 secs

     total energy              =    -675.01163193 Ry
     estimated scf accuracy    <       0.00001165 Ry

     iteration #637     ecut=    80.00 Ry     beta= 0.10
     Davidson diagonalization with overlap
     ethr =  5.08E-09,  avg # of iterations =  3.8

     negative rho (up, down):  1.315E-03 0.000E+00

     total cpu time spent up to now is     2610.0 secs

     total energy              =    -675.01162689 Ry
     estimated scf accuracy    <       0.00001156 Ry

     iteration #638     ecut=    80.00 Ry     beta= 0.10
     Davidson diagonalization with overlap
     ethr =  5.08E-09,  avg # of iterations =  4.2

     negative rho (up, down):  1.318E-03 0.000E+00

     total cpu time spent up to now is     2614.6 secs

     total energy              =    -675.01164557 Ry
     estimated scf accuracy    <       0.00003213 Ry

     iteration #639     ecut=    80.00 Ry     beta= 0.10
     Davidson diagonalization with overlap
     ethr =  5.08E-09,  avg # of iterations =  4.8

     negative rho (up, down):  1.319E-03 0.000E+00

     total cpu time spent up to now is     2619.5 secs

     total energy              =    -675.01163588 Ry
     estimated scf accuracy    <       0.00000921 Ry

     iteration #640     ecut=    80.00 Ry     beta= 0.10
     Davidson diagonalization with overlap
     ethr =  5.08E-09,  avg # of iterations =  2.0

     negative rho (up, down):  1.322E-03 0.000E+00

     total cpu time spent up to now is     2623.4 secs

     total energy              =    -675.01165014 Ry
     estimated scf accuracy    <       0.00001151 Ry

     iteration #641     ecut=    80.00 Ry     beta= 0.10
     Davidson diagonalization with overlap
     ethr =  5.08E-09,  avg # of iterations =  4.8

     negative rho (up, down):  1.318E-03 0.000E+00

     total cpu time spent up to now is     2628.3 secs

     total energy              =    -675.01162317 Ry
     estimated scf accuracy    <       0.00010853 Ry

     iteration #642     ecut=    80.00 Ry     beta= 0.10
     Davidson diagonalization with overlap
     ethr =  5.08E-09,  avg # of iterations =  5.0

     negative rho (up, down):  1.317E-03 0.000E+00

     total cpu time spent up to now is     2633.6 secs

     total energy              =    -675.01162929 Ry
     estimated scf accuracy    <       0.00001021 Ry

     iteration #643     ecut=    80.00 Ry     beta= 0.10
     Davidson diagonalization with overlap
     ethr =  5.08E-09,  avg # of iterations =  2.4

     negative rho (up, down):  1.317E-03 0.000E+00

     total cpu time spent up to now is     2637.6 secs

     total energy              =    -675.01162759 Ry
     estimated scf accuracy    <       0.00001668 Ry

     iteration #644     ecut=    80.00 Ry     beta= 0.10
     Davidson diagonalization with overlap
     ethr =  5.08E-09,  avg # of iterations =  1.0

     negative rho (up, down):  1.317E-03 0.000E+00

     total cpu time spent up to now is     2641.1 secs

     total energy              =    -675.01162870 Ry
     estimated scf accuracy    <       0.00001887 Ry

     iteration #645     ecut=    80.00 Ry     beta= 0.10
     Davidson diagonalization with overlap
     ethr =  5.08E-09,  avg # of iterations =  1.0

     negative rho (up, down):  1.317E-03 0.000E+00

     total cpu time spent up to now is     2644.6 secs

     total energy              =    -675.01162863 Ry
     estimated scf accuracy    <       0.00001509 Ry

     iteration #646     ecut=    80.00 Ry     beta= 0.10
     Davidson diagonalization with overlap
     ethr =  5.08E-09,  avg # of iterations =  1.0

     negative rho (up, down):  1.318E-03 0.000E+00

     total cpu time spent up to now is     2648.1 secs

     total energy              =    -675.01163172 Ry
     estimated scf accuracy    <       0.00001504 Ry

     iteration #647     ecut=    80.00 Ry     beta= 0.10
     Davidson diagonalization with overlap
     ethr =  5.08E-09,  avg # of iterations =  2.0

     negative rho (up, down):  1.317E-03 0.000E+00

     total cpu time spent up to now is     2651.9 secs

     total energy              =    -675.01162916 Ry
     estimated scf accuracy    <       0.00000956 Ry

     iteration #648     ecut=    80.00 Ry     beta= 0.10
     Davidson diagonalization with overlap
     ethr =  5.08E-09,  avg # of iterations =  2.0

     negative rho (up, down):  1.316E-03 0.000E+00

     total cpu time spent up to now is     2655.8 secs

     total energy              =    -675.01162411 Ry
     estimated scf accuracy    <       0.00001627 Ry

     iteration #649     ecut=    80.00 Ry     beta= 0.10
     Davidson diagonalization with overlap
     ethr =  5.08E-09,  avg # of iterations =  4.0

     negative rho (up, down):  1.316E-03 0.000E+00

     total cpu time spent up to now is     2660.2 secs

     total energy              =    -675.01162196 Ry
     estimated scf accuracy    <       0.00003827 Ry

     iteration #650     ecut=    80.00 Ry     beta= 0.10
     Davidson diagonalization with overlap
     ethr =  5.08E-09,  avg # of iterations =  1.0

     negative rho (up, down):  1.320E-03 0.000E+00

     total cpu time spent up to now is     2663.7 secs

     total energy              =    -675.01166623 Ry
     estimated scf accuracy    <       0.00003454 Ry

     iteration #651     ecut=    80.00 Ry     beta= 0.10
     Davidson diagonalization with overlap
     ethr =  5.08E-09,  avg # of iterations =  5.8

     negative rho (up, down):  1.324E-03 0.000E+00

     total cpu time spent up to now is     2669.2 secs

     total energy              =    -675.01167005 Ry
     estimated scf accuracy    <       0.00003008 Ry

     iteration #652     ecut=    80.00 Ry     beta= 0.10
     Davidson diagonalization with overlap
     ethr =  5.08E-09,  avg # of iterations =  4.8

     negative rho (up, down):  1.321E-03 0.000E+00

     total cpu time spent up to now is     2674.3 secs

     total energy              =    -675.01163159 Ry
     estimated scf accuracy    <       0.00038899 Ry

     iteration #653     ecut=    80.00 Ry     beta= 0.10
     Davidson diagonalization with overlap
     ethr =  5.08E-09,  avg # of iterations =  4.8

     negative rho (up, down):  1.319E-03 0.000E+00

     total cpu time spent up to now is     2679.2 secs

     total energy              =    -675.01163497 Ry
     estimated scf accuracy    <       0.00005433 Ry

     iteration #654     ecut=    80.00 Ry     beta= 0.10
     Davidson diagonalization with overlap
     ethr =  5.08E-09,  avg # of iterations =  4.0

     negative rho (up, down):  1.317E-03 0.000E+00

     total cpu time spent up to now is     2683.7 secs

     total energy              =    -675.01163212 Ry
     estimated scf accuracy    <       0.00001442 Ry

     iteration #655     ecut=    80.00 Ry     beta= 0.10
     Davidson diagonalization with overlap
     ethr =  5.08E-09,  avg # of iterations =  4.2

     negative rho (up, down):  1.317E-03 0.000E+00

     total cpu time spent up to now is     2688.3 secs

     total energy              =    -675.01162992 Ry
     estimated scf accuracy    <       0.00001073 Ry

     iteration #656     ecut=    80.00 Ry     beta= 0.10
     Davidson diagonalization with overlap
     ethr =  5.08E-09,  avg # of iterations =  1.2

     negative rho (up, down):  1.318E-03 0.000E+00

     total cpu time spent up to now is     2691.8 secs

     total energy              =    -675.01163518 Ry
     estimated scf accuracy    <       0.00001290 Ry

     iteration #657     ecut=    80.00 Ry     beta= 0.10
     Davidson diagonalization with overlap
     ethr =  5.08E-09,  avg # of iterations =  3.0

     negative rho (up, down):  1.319E-03 0.000E+00

     total cpu time spent up to now is     2695.9 secs

     total energy              =    -675.01163644 Ry
     estimated scf accuracy    <       0.00000863 Ry

     iteration #658     ecut=    80.00 Ry     beta= 0.10
     Davidson diagonalization with overlap
     ethr =  5.08E-09,  avg # of iterations =  2.2

     negative rho (up, down):  1.315E-03 0.000E+00

     total cpu time spent up to now is     2699.8 secs

     total energy              =    -675.01163650 Ry
     estimated scf accuracy    <       0.00001229 Ry

     iteration #659     ecut=    80.00 Ry     beta= 0.10
     Davidson diagonalization with overlap
     ethr =  5.08E-09,  avg # of iterations =  5.6

     negative rho (up, down):  1.316E-03 0.000E+00

     total cpu time spent up to now is     2705.2 secs

     total energy              =    -675.01162591 Ry
     estimated scf accuracy    <       0.00005401 Ry

     iteration #660     ecut=    80.00 Ry     beta= 0.10
     Davidson diagonalization with overlap
     ethr =  5.08E-09,  avg # of iterations =  3.8

     negative rho (up, down):  1.316E-03 0.000E+00

     total cpu time spent up to now is     2709.5 secs

     total energy              =    -675.01162518 Ry
     estimated scf accuracy    <       0.00002878 Ry

     iteration #661     ecut=    80.00 Ry     beta= 0.10
     Davidson diagonalization with overlap
     ethr =  5.08E-09,  avg # of iterations =  2.0

     negative rho (up, down):  1.316E-03 0.000E+00

     total cpu time spent up to now is     2713.2 secs

     total energy              =    -675.01162892 Ry
     estimated scf accuracy    <       0.00002388 Ry

     iteration #662     ecut=    80.00 Ry     beta= 0.10
     Davidson diagonalization with overlap
     ethr =  5.08E-09,  avg # of iterations =  2.0

     negative rho (up, down):  1.320E-03 0.000E+00

     total cpu time spent up to now is     2717.1 secs

     total energy              =    -675.01165322 Ry
     estimated scf accuracy    <       0.00001472 Ry

     iteration #663     ecut=    80.00 Ry     beta= 0.10
     Davidson diagonalization with overlap
     ethr =  5.08E-09,  avg # of iterations =  5.2

     negative rho (up, down):  1.317E-03 0.000E+00

     total cpu time spent up to now is     2722.4 secs

     total energy              =    -675.01163046 Ry
     estimated scf accuracy    <       0.00003878 Ry

     iteration #664     ecut=    80.00 Ry     beta= 0.10
     Davidson diagonalization with overlap
     ethr =  5.08E-09,  avg # of iterations =  4.8

     negative rho (up, down):  1.316E-03 0.000E+00

     total cpu time spent up to now is     2727.4 secs

     total energy              =    -675.01162728 Ry
     estimated scf accuracy    <       0.00001152 Ry

     iteration #665     ecut=    80.00 Ry     beta= 0.10
     Davidson diagonalization with overlap
     ethr =  5.08E-09,  avg # of iterations =  3.8

     negative rho (up, down):  1.314E-03 0.000E+00

     total cpu time spent up to now is     2731.6 secs

     total energy              =    -675.01161676 Ry
     estimated scf accuracy    <       0.00002564 Ry

     iteration #666     ecut=    80.00 Ry     beta= 0.10
     Davidson diagonalization with overlap
     ethr =  5.08E-09,  avg # of iterations =  4.8

     negative rho (up, down):  1.315E-03 0.000E+00

     total cpu time spent up to now is     2736.9 secs

     total energy              =    -675.01159628 Ry
     estimated scf accuracy    <       0.00007849 Ry

     iteration #667     ecut=    80.00 Ry     beta= 0.10
     Davidson diagonalization with overlap
     ethr =  5.08E-09,  avg # of iterations =  1.4

     negative rho (up, down):  1.314E-03 0.000E+00

     total cpu time spent up to now is     2740.5 secs

     total energy              =    -675.01158527 Ry
     estimated scf accuracy    <       0.00007949 Ry

     iteration #668     ecut=    80.00 Ry     beta= 0.10
     Davidson diagonalization with overlap
     ethr =  5.08E-09,  avg # of iterations =  4.0

     negative rho (up, down):  1.315E-03 0.000E+00

     total cpu time spent up to now is     2744.9 secs

     total energy              =    -675.01161705 Ry
     estimated scf accuracy    <       0.00007101 Ry

     iteration #669     ecut=    80.00 Ry     beta= 0.10
     Davidson diagonalization with overlap
     ethr =  5.08E-09,  avg # of iterations =  4.8

     negative rho (up, down):  1.315E-03 0.000E+00

     total cpu time spent up to now is     2749.9 secs

     total energy              =    -675.01160758 Ry
     estimated scf accuracy    <       0.00006245 Ry

     iteration #670     ecut=    80.00 Ry     beta= 0.10
     Davidson diagonalization with overlap
     ethr =  5.08E-09,  avg # of iterations =  2.0

     negative rho (up, down):  1.315E-03 0.000E+00

     total cpu time spent up to now is     2753.7 secs

     total energy              =    -675.01161408 Ry
     estimated scf accuracy    <       0.00007002 Ry

     iteration #671     ecut=    80.00 Ry     beta= 0.10
     Davidson diagonalization with overlap
     ethr =  5.08E-09,  avg # of iterations =  2.0

     negative rho (up, down):  1.316E-03 0.000E+00

     total cpu time spent up to now is     2757.5 secs

     total energy              =    -675.01162740 Ry
     estimated scf accuracy    <       0.00005573 Ry

     iteration #672     ecut=    80.00 Ry     beta= 0.10
     Davidson diagonalization with overlap
     ethr =  5.08E-09,  avg # of iterations =  4.2

     negative rho (up, down):  1.318E-03 0.000E+00

     total cpu time spent up to now is     2762.1 secs

     total energy              =    -675.01165011 Ry
     estimated scf accuracy    <       0.00002783 Ry

     iteration #673     ecut=    80.00 Ry     beta= 0.10
     Davidson diagonalization with overlap
     ethr =  5.08E-09,  avg # of iterations =  5.0

     negative rho (up, down):  1.320E-03 0.000E+00

     total cpu time spent up to now is     2767.2 secs

     total energy              =    -675.01164608 Ry
     estimated scf accuracy    <       0.00001291 Ry

     iteration #674     ecut=    80.00 Ry     beta= 0.10
     Davidson diagonalization with overlap
     ethr =  5.08E-09,  avg # of iterations =  4.2

     negative rho (up, down):  1.320E-03 0.000E+00

     total cpu time spent up to now is     2771.8 secs

     total energy              =    -675.01164240 Ry
     estimated scf accuracy    <       0.00006837 Ry

     iteration #675     ecut=    80.00 Ry     beta= 0.10
     Davidson diagonalization with overlap
     ethr =  5.08E-09,  avg # of iterations =  2.0

     negative rho (up, down):  1.320E-03 0.000E+00

     total cpu time spent up to now is     2775.7 secs

     total energy              =    -675.01164560 Ry
     estimated scf accuracy    <       0.00004268 Ry

     iteration #676     ecut=    80.00 Ry     beta= 0.10
     Davidson diagonalization with overlap
     ethr =  5.08E-09,  avg # of iterations =  2.0

     negative rho (up, down):  1.320E-03 0.000E+00

     total cpu time spent up to now is     2779.4 secs

     total energy              =    -675.01164702 Ry
     estimated scf accuracy    <       0.00005874 Ry

     iteration #677     ecut=    80.00 Ry     beta= 0.10
     Davidson diagonalization with overlap
     ethr =  5.08E-09,  avg # of iterations =  1.0

     negative rho (up, down):  1.319E-03 0.000E+00

     total cpu time spent up to now is     2782.9 secs

     total energy              =    -675.01163786 Ry
     estimated scf accuracy    <       0.00006768 Ry

     iteration #678     ecut=    80.00 Ry     beta= 0.10
     Davidson diagonalization with overlap
     ethr =  5.08E-09,  avg # of iterations =  3.6

     negative rho (up, down):  1.317E-03 0.000E+00

     total cpu time spent up to now is     2787.1 secs

     total energy              =    -675.01163196 Ry
     estimated scf accuracy    <       0.00002350 Ry

     iteration #679     ecut=    80.00 Ry     beta= 0.10
     Davidson diagonalization with overlap
     ethr =  5.08E-09,  avg # of iterations =  4.4

     negative rho (up, down):  1.317E-03 0.000E+00

     total cpu time spent up to now is     2791.8 secs

     total energy              =    -675.01163035 Ry
     estimated scf accuracy    <       0.00001041 Ry

     iteration #680     ecut=    80.00 Ry     beta= 0.10
     Davidson diagonalization with overlap
     ethr =  5.08E-09,  avg # of iterations =  1.0

     negative rho (up, down):  1.316E-03 0.000E+00

     total cpu time spent up to now is     2795.3 secs

     total energy              =    -675.01162687 Ry
     estimated scf accuracy    <       0.00001198 Ry

     iteration #681     ecut=    80.00 Ry     beta= 0.10
     Davidson diagonalization with overlap
     ethr =  5.08E-09,  avg # of iterations =  4.0

     negative rho (up, down):  1.315E-03 0.000E+00

     total cpu time spent up to now is     2799.7 secs

     total energy              =    -675.01161686 Ry
     estimated scf accuracy    <       0.00002878 Ry

     iteration #682     ecut=    80.00 Ry     beta= 0.10
     Davidson diagonalization with overlap
     ethr =  5.08E-09,  avg # of iterations =  4.2

     negative rho (up, down):  1.316E-03 0.000E+00

     total cpu time spent up to now is     2804.3 secs

     total energy              =    -675.01162259 Ry
     estimated scf accuracy    <       0.00006104 Ry

     iteration #683     ecut=    80.00 Ry     beta= 0.10
     Davidson diagonalization with overlap
     ethr =  5.08E-09,  avg # of iterations =  3.6

     negative rho (up, down):  1.317E-03 0.000E+00

     total cpu time spent up to now is     2808.5 secs

     total energy              =    -675.01163212 Ry
     estimated scf accuracy    <       0.00003784 Ry

     iteration #684     ecut=    80.00 Ry     beta= 0.10
     Davidson diagonalization with overlap
     ethr =  5.08E-09,  avg # of iterations =  4.0

     negative rho (up, down):  1.317E-03 0.000E+00

     total cpu time spent up to now is     2813.0 secs

     total energy              =    -675.01162805 Ry
     estimated scf accuracy    <       0.00001480 Ry

     iteration #685     ecut=    80.00 Ry     beta= 0.10
     Davidson diagonalization with overlap
     ethr =  5.08E-09,  avg # of iterations =  1.0

     negative rho (up, down):  1.317E-03 0.000E+00
