&CONTROL
   calculation      = 'scf'
   tstress          = .true.
   tprnfor          = .true.
   prefix           = 'c2_qe'
   pseudo_dir       = 'pseudopotentials/qe'
/
&SYSTEM
   ecutwfc          = 80
   ecutrho          = 320
   occupations      = 'smearing'
   degauss          = 0.02
   smearing         = 'mv'
   assume_isolated  = '2D'
   ntyp             = 2
   nat              = 19
   ibrav            = 0
/
&ELECTRONS
   electron_maxstep = 700
   conv_thr         = 1e-06
   mixing_mode      = 'local-TF'
   mixing_beta      = 0.1
   mixing_ndim      = 8
/
&IONS
/
&CELL
/
&FCP
/
&RISM
/
ATOMIC_SPECIES
C 12.011 C.pbe-n-kjpaw_psl.1.0.0.UPF
Ni 58.6934 ni_pbe_v1.4.uspp.F.UPF

K_POINTS automatic
3 3 1  0 0 0

CELL_PARAMETERS angstrom
7.38000000000000 0.00000000000000 0.00000000000000
-3.69000000000000 6.39126747992916 0.00000000000000
0.00000000000000 -0.00000000000000 16.00000000000000

ATOMIC_POSITIONS angstrom
C 0.0017602887 0.0168843800 8.0319075385  
C 1.2321431785 0.7141864622 8.0189184180  
C -1.2165417731 2.1268056102 8.0310730676  
C 0.0028053972 2.8438586063 8.0271945237  
C -2.4444650695 4.2718988761 8.0177777375  
C -1.2145344662 4.9832909793 8.0313421336  
C 2.4626108910 0.0043354384 8.0198907984  
C 3.6909442133 0.7040959190 8.0181421466  
C 1.2247966011 2.1296388089 8.0169547228  
C 2.4527937338 2.8390342698 8.0095312558  
C 0.0022958592 4.2643944194 8.0295434456  
C 1.2234508118 4.9791732546 8.0309407826  
C 4.9216662879 0.0039740005 8.0273633700  
C 6.1524884919 0.7133996919 8.0301626290  
C 3.6904900976 2.1231664298 8.0100343310  
C 4.9323713911 2.8368306071 8.0195717242  
C 2.4522663584 4.2681051215 8.0235759097  
C 3.6905206797 4.9876756003 8.0242745818  
Ni 3.8521370812 3.6281240857 9.5818007496  

