SystemName	c2
SystemLabel	c2

DM.MixingWeight	0.1
MaxSCFIterations	100
SCFMustConverge	True

Spin	non-polarized
XC.functional	GGA
XC.authors	PBE

MeshCutoff	3129.309392802233	eV
PAO.EnergyShift	0.13605693012183623	eV

NumberOfSpecies	2
NumberOfAtoms	40
%block ChemicalSpecieslabel
    1 6 C.1 C.1.psml
    2 1 H.2 H.2.psml
%endblock ChemicalSpecieslabel

%block PAO.BasisSizes
    C.1	DZP
    H.2	DZP
%endblock PAO.BasisSizes


LatticeConstant	1.0 Ang
%block LatticeVectors
    3.591774264265943 0.0 0.0
    -9.68081031404745e-20 3.591774264265943 0.0
    0.0 -0.0 43.469153490997286
%endblock LatticeVectors
AtomicCoordinatesFormat	Ang
%block AtomicCoordinatesAndAtomicSpecies
    0.10362603034845494 -0.10363496963452873 15.05376859816458 1
    0.8934913737700502 0.902311969483948 15.901888940744767 1
    1.8993477930101363 1.6922240855843365 15.053815590071224 1
    2.68946258297235 2.698181775037632 15.90175613123598 1
    -0.002532291748508108 1.7983170253615257 16.80863163744557 1
    0.8994858915010544 2.692268869600269 17.704439043711336 1
    1.79342539224979 0.0024340874748056502 16.808531428599686 1
    2.6953059350178545 0.8963640625917361 17.70450376424226 1
    0.0015526827158549767 -0.0015842063801585703 18.603294176501993 1
    0.8991234848238924 0.8967171159331069 19.501317018200822 1
    1.797383767370863 1.7942915777615793 18.603307622229362 1
    2.6949980975104824 2.6925743348052564 19.501261212632052 1
    0.0010336830189307717 1.7947722699786761 20.39955734399029 1
    0.8988285047939515 2.6928443600307683 21.29769897819068 1
    1.7969424304887902 -0.0011175952780329112 20.399607351510635 1
    2.694770739727579 0.8969290945113214 21.297698351286055 1
    0.000813551555740869 -0.0009436736985245343 22.195934980226316 1
    0.8987639258848868 0.8969978200095555 23.094077692080877 1
    1.7967089744660372 1.7949398160930994 22.19584930385085 1
    2.694632033023671 2.692823501884707 23.094084419716626 1
    0.0008079207567344374 1.7948745620141318 23.992449046203312 1
    0.8986817898109815 2.6929116662764847 24.8904551813792 1
    1.7967004845004333 -0.001052852757682907 23.992341290971076 1
    2.694538492145035 0.8969185438855969 24.890394277882034 1
    0.000925681243237816 -0.001135779243925421 25.789203447076584 1
    0.9030952606701932 0.8925977807727667 26.685164336024968 1
    1.7967975752180152 1.7946693073824722 25.78912086172463 1
    2.6989970843096653 2.6883585011376487 26.685060094647802 1
    0.007322922398036147 1.7883763008694917 27.591978290074056 1
    0.79800191344642 2.7938203010370297 28.439957919249405 1
    1.8032429621188404 -0.007649480831481311 27.591695264694344 1
    2.5937673598194713 0.9975626217562034 28.439816925255144 1
    1.0636603287963493 2.5294081283465655 29.496395013468927 2
    0.07744559731712697 3.5143551933353017 28.715851357705112 2
    1.8726458771855767 1.7176047521678584 28.71512697612614 2
    2.8582951134623 0.7329331117616719 29.49654389715003 2
    -0.16035493853734753 0.15976360929229674 13.996503187695465 2
    0.825089976888315 -0.824125797649527 14.779603604364882 2
    1.6351266285213761 1.955383194308316 13.996528572885365 2
    2.620551394279305 0.9714685429837213 14.779765597191194 2
%endblock AtomicCoordinatesAndAtomicSpecies
%block DM.InitSpin
%endblock DM.InitSpin

DM.UseSaveDM	True

#KPoint grid
%block kgrid_Monkhorst_Pack
     5       0       0  0.0
     0       5       0  0.0
     0       0       1  0.0
%endblock kgrid_Monkhorst_Pack

