&CONTROL
   calculation      = 'scf'
   tstress          = .true.
   tprnfor          = .true.
   prefix           = 'c2_qe'
   pseudo_dir       = 'pseudopotentials/qe'
/
&SYSTEM
   ecutwfc          = 80
   ecutrho          = 320
   occupations      = 'smearing'
   degauss          = 0.02
   smearing         = 'mv'
   assume_isolated  = '2D'
   ntyp             = 2
   nat              = 19
   ibrav            = 0
/
&ELECTRONS
   electron_maxstep = 500
   conv_thr         = 1e-06
   mixing_mode      = 'local-TF'
   mixing_beta      = 0.2
   mixing_ndim      = 8
/
&IONS
/
&CELL
/
&FCP
/
&RISM
/
ATOMIC_SPECIES
C 12.011 C.pbe-n-kjpaw_psl.1.0.0.UPF
Ni 58.6934 ni_pbe_v1.4.uspp.F.UPF

K_POINTS automatic
3 3 1  0 0 0

CELL_PARAMETERS angstrom
7.38000000000000 0.00000000000000 0.00000000000000
-3.69000000000000 6.39126747992916 0.00000000000000
0.00000000000000 -0.00000000000000 16.00000000000000

ATOMIC_POSITIONS angstrom
C -0.0074752218 -0.0018572560 8.0319308495  
C 1.2214877599 0.7077414320 8.0194318656  
C -1.2281815221 2.1346723298 8.0292002133  
C -0.0076884564 2.8494016410 8.0301564824  
C -2.4574056471 4.2639922559 8.0277076435  
C -1.2283109931 4.9638838096 8.0320346719  
C 2.4616442853 -0.0081969949 8.0197074569  
C 3.7019885588 0.7077044552 8.0153853769  
C 1.2213964929 2.1398329973 8.0146425205  
C 2.4616972866 2.8561383051 8.0081734179  
C 0.0008287836 4.2638633237 8.0292785420  
C 1.2325149200 4.9749798865 8.0290165501  
C 4.9311435594 -0.0019000320 8.0305562924  
C 6.1518711929 0.7125423107 8.0294177792  
C 3.7021769060 2.1399963577 8.0086679886  
C 4.9313133800 2.8495455802 8.0260220570  
C 2.4617908211 4.2753555802 8.0255957372  
C 3.6909992773 4.9751110076 8.0276374066  
Ni 2.4682086666 1.4360655656 9.5654370107  

