
     Program PWSCF v.7.5 starts on 25Jul2026 at 22:18:15 

     This program is part of the open-source Quantum ESPRESSO suite
     for quantum simulation of materials; please cite
         "P. Giannozzi et al., J. Phys.:Condens. Matter 21 395502 (2009);
         "P. Giannozzi et al., J. Phys.:Condens. Matter 29 465901 (2017);
         "P. Giannozzi et al., J. Chem. Phys. 152 154105 (2020);
          URL http://www.quantum-espresso.org", 
     in publications or presentations arising from this work. More details at
     http://www.quantum-espresso.org/quote

     Parallel version (MPI & OpenMP), running on      10 processor cores
     Number of MPI processes:                10
     Threads/MPI process:                     1

     MPI processes distributed on     1 nodes
     213271 MiB available memory on the printing compute node when the environment starts

     Reading input from espresso.pwi
Warning: card &CELL ignored
Warning: card &FCP ignored
Warning: card &RISM ignored

     Current dimensions of program PWSCF are:
     Max number of different atomic species (ntypx) = 10
     Max number of k-points (npk) =  40000
     Max angular momentum in pseudopotentials (lmaxx) =  4
     file C.pbe-n-kjpaw_psl.1.0.0.UPF: wavefunction(s)  2S 2P renormalized

     R & G space division:  proc/nbgrp/npool/nimage =      10
     Subspace diagonalization in iterative solution of the eigenvalue problem:
     a serial algorithm will be used


     Parallelization info
     --------------------
     sticks:   dense  smooth     PW     G-vecs:    dense   smooth      PW
     Min         426     426    114                49202    49202    6788
     Max         427     427    115                49219    49219    6795
     Sum        4267    4267   1147               492131   492131   67919

     Using Slab Decomposition



     bravais-lattice index     =            0
     lattice parameter (alat)  =      13.9462  a.u.
     unit-cell volume          =    5092.8389 (a.u.)^3
     number of atoms/cell      =           19
     number of atomic types    =            2
     number of electrons       =        90.00
     number of Kohn-Sham states=           54
     kinetic-energy cutoff     =      80.0000  Ry
     charge density cutoff     =     320.0000  Ry
     scf convergence threshold =      1.0E-06
     mixing beta               =       0.2000
     number of iterations used =            8  local-TF  mixing
     Exchange-correlation=  SLA  PW   PBX  PBC
                           (   1   4   3   4   0   0   0)

     celldm(1)=  13.946179  celldm(2)=   0.000000  celldm(3)=   0.000000
     celldm(4)=   0.000000  celldm(5)=   0.000000  celldm(6)=   0.000000

     crystal axes: (cart. coord. in units of alat)
               a(1) = (   1.000000   0.000000   0.000000 )  
               a(2) = (  -0.500000   0.866025   0.000000 )  
               a(3) = (   0.000000  -0.000000   2.168022 )  

     reciprocal axes: (cart. coord. in units 2 pi/alat)
               b(1) = (  1.000000  0.577350  0.000000 )  
               b(2) = ( -0.000000  1.154701  0.000000 )  
               b(3) = (  0.000000 -0.000000  0.461250 )  


     PseudoPot. # 1 for C  read from file:
     /lustre07/scratch/tanay11/siesta-qe-notebook-benchmark/pseudo_espresso/C.pbe-n-kjpaw_psl.1.0.0.UPF
     MD5 check sum: 5d2aebdfa2cae82b50a7e79e9516da0f
     Pseudo is Projector augmented-wave + core cor, Zval =  4.0
     Generated using "atomic" code by A. Dal Corso  v.5.1
     Shape of augmentation charge: PSQ
     Using radial grid of 1073 points,  4 beta functions with: 
                l(1) =   0
                l(2) =   0
                l(3) =   1
                l(4) =   1
     Q(r) pseudized with 0 coefficients 


     PseudoPot. # 2 for Ni read from file:
     /lustre07/scratch/tanay11/siesta-qe-notebook-benchmark/pseudo_espresso/ni_pbe_v1.4.uspp.F.UPF
     MD5 check sum: 1ee80287db30b12d2bc1f57a5b5d6409
     Pseudo is Ultrasoft + core correction, Zval = 18.0
     Generated by new atomic code, or converted to UPF format
     Using radial grid of  865 points,  6 beta functions with: 
                l(1) =   0
                l(2) =   0
                l(3) =   1
                l(4) =   1
                l(5) =   2
                l(6) =   2
     Q(r) pseudized with 10 coefficients,  rinner =    0.980   0.980   0.980
                                                       0.980   0.980

     atomic species   valence    mass     pseudopotential
     C                 4.00    12.01100     C ( 1.00)
     Ni               18.00    58.69340     Ni( 1.00)

     No symmetry found



   Cartesian axes

     site n.     atom                  positions (alat units)
         1        C      tau(   1) = (  -0.0010129  -0.0002517   1.0883375  )
         2        C      tau(   2) = (   0.1655132   0.0958999   1.0866439  )
         3        C      tau(   3) = (  -0.1664203   0.2892510   1.0879675  )
         4        C      tau(   4) = (  -0.0010418   0.3860978   1.0880971  )
         5        C      tau(   5) = (  -0.3329818   0.5777767   1.0877653  )
         6        C      tau(   6) = (  -0.1664378   0.6726130   1.0883516  )
         7        C      tau(   7) = (   0.3335561  -0.0011107   1.0866812  )
         8        C      tau(   8) = (   0.5016245   0.0958949   1.0860956  )
         9        C      tau(   9) = (   0.1655009   0.2899503   1.0859949  )
        10        C      tau(  10) = (   0.3335633   0.3870106   1.0851183  )
        11        C      tau(  11) = (   0.0001123   0.5777593   1.0879781  )
        12        C      tau(  12) = (   0.1670074   0.6741165   1.0879426  )
        13        C      tau(  13) = (   0.6681766  -0.0002575   1.0881513  )
        14        C      tau(  14) = (   0.8335869   0.0965504   1.0879970  )
        15        C      tau(  15) = (   0.5016500   0.2899724   1.0851854  )
        16        C      tau(  16) = (   0.6681996   0.3861173   1.0875369  )
        17        C      tau(  17) = (   0.3335760   0.5793165   1.0874791  )
        18        C      tau(  18) = (   0.5001354   0.6741343   1.0877557  )
        19        Ni     tau(  19) = (   0.3344456   0.1945888   1.2961297  )

     number of k points=     5  Marzari-Vanderbilt smearing, width (Ry)=  0.0200
                       cart. coord. in units 2pi/alat
        k(    1) = (   0.0000000   0.0000000   0.0000000), wk =   0.2222222
        k(    2) = (   0.0000000   0.3849002   0.0000000), wk =   0.4444444
        k(    3) = (   0.3333333   0.5773503   0.0000000), wk =   0.4444444
        k(    4) = (  -0.3333333   0.1924501   0.0000000), wk =   0.4444444
        k(    5) = (   0.3333333   0.1924501   0.0000000), wk =   0.4444444

     Dense  grid:   492131 G-vectors     FFT dimensions: (  80,  80, 180)

     Estimated max dynamical RAM per process >     257.57 MB

     Estimated total dynamical RAM >       2.52 GB
 ----2D----2D----2D----2D----2D----2D----2D----2D----2D----2D----2D----2D
  The code is running with the 2D cutoff
  Please refer to:
  Sohier, T., Calandra, M., & Mauri, F. (2017), 
  Density functional perturbation theory for gated two-dimensional heterostructures:
  Theoretical developments and application to flexural phonons in graphene.
  Physical Review B, 96(7), 75448. https://doi.org/10.1103/PhysRevB.96.075448
 ----2D----2D----2D----2D----2D----2D----2D----2D----2D----2D----2D----2D

     Check: negative core charge=   -0.000005

     Initial potential from superposition of free atoms

     starting charge      87.9993, renormalised to      90.0000

     negative rho (up, down):  2.880E-04 0.000E+00
     Starting wfcs are   85 randomized atomic wfcs
     Checking if some PAW data can be deallocated... 

     total cpu time spent up to now is        2.8 secs

     per-process dynamical memory:   166.3 Mb

     Self-consistent Calculation

     iteration #  1     ecut=    80.00 Ry     beta= 0.20
     Davidson diagonalization with overlap
     ethr =  1.00E-02,  avg # of iterations =  8.4

     negative rho (up, down):  2.737E-02 0.000E+00

     total cpu time spent up to now is        8.4 secs

     total energy              =    -676.09605491 Ry
     estimated scf accuracy    <       7.74232106 Ry

     iteration #  2     ecut=    80.00 Ry     beta= 0.20
     Davidson diagonalization with overlap
     ethr =  8.60E-03,  avg # of iterations =  1.0

     negative rho (up, down):  1.984E-01 0.000E+00

     total cpu time spent up to now is       11.9 secs

     total energy              =    -674.21783480 Ry
     estimated scf accuracy    <       5.57832671 Ry

     iteration #  3     ecut=    80.00 Ry     beta= 0.20
     Davidson diagonalization with overlap
     ethr =  6.20E-03,  avg # of iterations =  2.0

     negative rho (up, down):  7.860E-02 0.000E+00

     total cpu time spent up to now is       15.8 secs

     total energy              =    -674.99374193 Ry
     estimated scf accuracy    <       2.06580702 Ry

     iteration #  4     ecut=    80.00 Ry     beta= 0.20
     Davidson diagonalization with overlap
     ethr =  2.30E-03,  avg # of iterations =  1.4

     negative rho (up, down):  1.567E-01 0.000E+00

     total cpu time spent up to now is       19.4 secs

     total energy              =    -674.88280718 Ry
     estimated scf accuracy    <       1.53344639 Ry

     iteration #  5     ecut=    80.00 Ry     beta= 0.20
     Davidson diagonalization with overlap
     ethr =  1.70E-03,  avg # of iterations =  2.0

     negative rho (up, down):  8.606E-02 0.000E+00

     total cpu time spent up to now is       23.2 secs

     total energy              =    -675.06516795 Ry
     estimated scf accuracy    <       0.60178473 Ry

     iteration #  6     ecut=    80.00 Ry     beta= 0.20
     Davidson diagonalization with overlap
     ethr =  6.69E-04,  avg # of iterations =  3.8

     negative rho (up, down):  7.119E-03 0.000E+00

     total cpu time spent up to now is       27.1 secs

     total energy              =    -674.98439638 Ry
     estimated scf accuracy    <       0.33116131 Ry

     iteration #  7     ecut=    80.00 Ry     beta= 0.20
     Davidson diagonalization with overlap
     ethr =  3.68E-04,  avg # of iterations =  3.2

     negative rho (up, down):  5.029E-03 0.000E+00

     total cpu time spent up to now is       31.1 secs

     total energy              =    -675.03554242 Ry
     estimated scf accuracy    <       0.09507691 Ry

     iteration #  8     ecut=    80.00 Ry     beta= 0.20
     Davidson diagonalization with overlap
     ethr =  1.06E-04,  avg # of iterations =  4.2

     negative rho (up, down):  2.514E-05 0.000E+00

     total cpu time spent up to now is       35.3 secs

     total energy              =    -675.03242359 Ry
     estimated scf accuracy    <       0.06666911 Ry

     iteration #  9     ecut=    80.00 Ry     beta= 0.20
     Davidson diagonalization with overlap
     ethr =  7.41E-05,  avg # of iterations =  2.0

     negative rho (up, down):  2.058E-05 0.000E+00

     total cpu time spent up to now is       39.2 secs

     total energy              =    -675.02470009 Ry
     estimated scf accuracy    <       0.03766541 Ry

     iteration # 10     ecut=    80.00 Ry     beta= 0.20
     Davidson diagonalization with overlap
     ethr =  4.19E-05,  avg # of iterations =  9.4

     negative rho (up, down):  2.936E-05 0.000E+00

     total cpu time spent up to now is       44.3 secs

     total energy              =    -675.02119432 Ry
     estimated scf accuracy    <       0.02495381 Ry

     iteration # 11     ecut=    80.00 Ry     beta= 0.20
     Davidson diagonalization with overlap
     ethr =  2.77E-05,  avg # of iterations =  2.0

     negative rho (up, down):  3.664E-05 0.000E+00

     total cpu time spent up to now is       48.2 secs

     total energy              =    -675.02076319 Ry
     estimated scf accuracy    <       0.01141066 Ry

     iteration # 12     ecut=    80.00 Ry     beta= 0.20
     Davidson diagonalization with overlap
     ethr =  1.27E-05,  avg # of iterations =  5.0

     negative rho (up, down):  1.746E-02 0.000E+00

     total cpu time spent up to now is       52.4 secs

     total energy              =    -675.01609292 Ry
     estimated scf accuracy    <       0.00949995 Ry

     iteration # 13     ecut=    80.00 Ry     beta= 0.20
     Davidson diagonalization with overlap
     ethr =  1.06E-05,  avg # of iterations =  5.2

     negative rho (up, down):  1.781E-02 0.000E+00

     total cpu time spent up to now is       56.9 secs

     total energy              =    -675.01541651 Ry
     estimated scf accuracy    <       0.00387417 Ry

     iteration # 14     ecut=    80.00 Ry     beta= 0.20
     Davidson diagonalization with overlap
     ethr =  4.30E-06,  avg # of iterations =  3.0

     negative rho (up, down):  2.525E-02 0.000E+00

     total cpu time spent up to now is       60.9 secs

     total energy              =    -675.01410651 Ry
     estimated scf accuracy    <       0.00309297 Ry

     iteration # 15     ecut=    80.00 Ry     beta= 0.20
     Davidson diagonalization with overlap
     c_bands:  1 eigenvalues not converged
     c_bands:  1 eigenvalues not converged
     c_bands:  1 eigenvalues not converged
     ethr =  3.44E-06,  avg # of iterations = 15.6

     negative rho (up, down):  2.549E-02 0.000E+00

     total cpu time spent up to now is       66.8 secs

     total energy              =    -675.01448715 Ry
     estimated scf accuracy    <       0.00111367 Ry

     iteration # 16     ecut=    80.00 Ry     beta= 0.20
     Davidson diagonalization with overlap
     ethr =  1.24E-06,  avg # of iterations =  1.6

     negative rho (up, down):  8.595E-03 0.000E+00

     total cpu time spent up to now is       70.5 secs

     total energy              =    -675.01406243 Ry
     estimated scf accuracy    <       0.00059653 Ry

     iteration # 17     ecut=    80.00 Ry     beta= 0.20
     Davidson diagonalization with overlap
     ethr =  6.63E-07,  avg # of iterations =  8.4

     negative rho (up, down):  9.659E-03 0.000E+00

     total cpu time spent up to now is       75.7 secs

     total energy              =    -675.01415893 Ry
     estimated scf accuracy    <       0.00033066 Ry

     iteration # 18     ecut=    80.00 Ry     beta= 0.20
     Davidson diagonalization with overlap
     ethr =  3.67E-07,  avg # of iterations =  3.8

     negative rho (up, down):  8.970E-03 0.000E+00

     total cpu time spent up to now is       79.8 secs

     total energy              =    -675.01414894 Ry
     estimated scf accuracy    <       0.00015916 Ry

     iteration # 19     ecut=    80.00 Ry     beta= 0.20
     Davidson diagonalization with overlap
     ethr =  1.77E-07,  avg # of iterations =  3.2

     negative rho (up, down):  4.420E-03 0.000E+00

     total cpu time spent up to now is       84.0 secs

     total energy              =    -675.01408790 Ry
     estimated scf accuracy    <       0.00024303 Ry

     iteration # 20     ecut=    80.00 Ry     beta= 0.20
     Davidson diagonalization with overlap
     ethr =  1.77E-07,  avg # of iterations =  6.2

     negative rho (up, down):  5.277E-03 0.000E+00

     total cpu time spent up to now is       88.5 secs

     total energy              =    -675.01408327 Ry
     estimated scf accuracy    <       0.00020569 Ry

     iteration # 21     ecut=    80.00 Ry     beta= 0.20
     Davidson diagonalization with overlap
     ethr =  1.77E-07,  avg # of iterations =  2.0

     negative rho (up, down):  2.539E-03 0.000E+00

     total cpu time spent up to now is       92.3 secs

     total energy              =    -675.01404520 Ry
     estimated scf accuracy    <       0.00014104 Ry

     iteration # 22     ecut=    80.00 Ry     beta= 0.20
     Davidson diagonalization with overlap
     ethr =  1.57E-07,  avg # of iterations =  5.0

     negative rho (up, down):  3.884E-03 0.000E+00

     total cpu time spent up to now is       96.9 secs

     total energy              =    -675.01406207 Ry
     estimated scf accuracy    <       0.00032488 Ry

     iteration # 23     ecut=    80.00 Ry     beta= 0.20
     Davidson diagonalization with overlap
     ethr =  1.57E-07,  avg # of iterations =  2.0

     negative rho (up, down):  1.499E-03 0.000E+00

     total cpu time spent up to now is      100.7 secs

     total energy              =    -675.01405839 Ry
     estimated scf accuracy    <       0.00020046 Ry

     iteration # 24     ecut=    80.00 Ry     beta= 0.20
     Davidson diagonalization with overlap
     ethr =  1.57E-07,  avg # of iterations =  1.8

     negative rho (up, down):  1.145E-03 0.000E+00

     total cpu time spent up to now is      104.4 secs

     total energy              =    -675.01405818 Ry
     estimated scf accuracy    <       0.00026911 Ry

     iteration # 25     ecut=    80.00 Ry     beta= 0.20
     Davidson diagonalization with overlap
     ethr =  1.57E-07,  avg # of iterations =  1.0

     negative rho (up, down):  4.474E-04 0.000E+00

     total cpu time spent up to now is      107.9 secs

     total energy              =    -675.01401827 Ry
     estimated scf accuracy    <       0.00024388 Ry

     iteration # 26     ecut=    80.00 Ry     beta= 0.20
     Davidson diagonalization with overlap
     ethr =  1.57E-07,  avg # of iterations =  3.8

     negative rho (up, down):  6.721E-04 0.000E+00

     total cpu time spent up to now is      112.1 secs

     total energy              =    -675.01402491 Ry
     estimated scf accuracy    <       0.00004918 Ry

     iteration # 27     ecut=    80.00 Ry     beta= 0.20
     Davidson diagonalization with overlap
     ethr =  5.46E-08,  avg # of iterations =  2.0

     negative rho (up, down):  6.730E-04 0.000E+00

     total cpu time spent up to now is      115.8 secs

     total energy              =    -675.01402532 Ry
     estimated scf accuracy    <       0.00002668 Ry

     iteration # 28     ecut=    80.00 Ry     beta= 0.20
     Davidson diagonalization with overlap
     ethr =  2.96E-08,  avg # of iterations =  2.2

     negative rho (up, down):  1.161E-03 0.000E+00

     total cpu time spent up to now is      119.7 secs

     total energy              =    -675.01401914 Ry
     estimated scf accuracy    <       0.00002667 Ry

     iteration # 29     ecut=    80.00 Ry     beta= 0.20
     Davidson diagonalization with overlap
     ethr =  2.96E-08,  avg # of iterations =  2.4

     negative rho (up, down):  1.033E-03 0.000E+00

     total cpu time spent up to now is      123.6 secs

     total energy              =    -675.01402495 Ry
     estimated scf accuracy    <       0.00000260 Ry

     iteration # 30     ecut=    80.00 Ry     beta= 0.20
     Davidson diagonalization with overlap
     ethr =  2.89E-09,  avg # of iterations =  3.8

     negative rho (up, down):  1.311E-03 0.000E+00

     total cpu time spent up to now is      128.2 secs

     total energy              =    -675.01402351 Ry
     estimated scf accuracy    <       0.00000380 Ry

     iteration # 31     ecut=    80.00 Ry     beta= 0.20
     Davidson diagonalization with overlap
     ethr =  2.89E-09,  avg # of iterations =  3.2

     negative rho (up, down):  1.307E-03 0.000E+00

     total cpu time spent up to now is      131.8 secs

     End of self-consistent calculation

          k = 0.0000 0.0000 0.0000 ( 61551 PWs)   bands (ev):

  -105.9635 -66.5490 -66.5486 -66.2466 -23.6116 -21.2708 -21.0606 -21.0602
   -20.8630 -20.8363 -20.8357 -16.7110 -16.7109 -16.5470 -16.5468 -14.7296
   -14.5323 -13.7099 -13.7097 -13.6507 -13.6507 -13.6229 -13.5718 -11.8324
    -9.9324  -9.9319  -9.7816  -9.7385  -9.7382  -9.6691  -9.0657  -9.0343
    -9.0325  -8.5358  -8.5353  -8.5316  -7.0195  -7.0188  -5.2708  -5.2683
    -4.9329  -4.9325  -4.6817  -3.4797  -3.4785  -3.3984  -3.3979  -2.8874
    -0.2743   0.1021   0.7871   1.0439   1.0441   1.0533

          k = 0.0000 0.3849 0.0000 ( 61572 PWs)   bands (ev):

  -105.9635 -66.5490 -66.5486 -66.2466 -23.3318 -22.4333 -21.5736 -21.5245
   -19.9337 -19.8298 -19.0534 -18.3328 -18.2602 -16.4073 -15.8583 -15.7999
   -14.9696 -14.9103 -13.2882 -13.1105 -12.1844 -12.1667 -11.5083 -11.1016
   -10.9751 -10.7298 -10.4238 -10.3925 -10.1411 -10.1063  -9.4476  -9.3715
    -8.7509  -8.1455  -7.7726  -7.6142  -7.5949  -6.9076  -6.1652  -6.0887
    -4.9842  -4.8059  -4.6502  -4.1220  -4.0292  -2.7898  -2.0693  -2.0323
    -1.5694  -0.5587  -0.4965  -0.2731   0.1714   0.8510

          k = 0.3333 0.5774 0.0000 ( 61470 PWs)   bands (ev):

  -105.9635 -66.5490 -66.5486 -66.2466 -22.9557 -22.6034 -22.6029 -20.1614
   -20.1612 -20.1395 -18.1828 -18.1824 -18.0054 -17.1798 -17.0547 -17.0544
   -13.7504 -13.7499 -13.6078 -12.2335 -12.1790 -12.1783 -11.3412 -11.3407
   -11.3077 -11.1032 -10.5962 -10.5956  -9.7710  -9.7706  -9.5583  -8.8148
    -8.8144  -8.6670  -7.9874  -7.9867  -7.6937  -6.5110  -6.5106  -5.9860
    -4.9893  -4.9881  -4.6363  -4.0305  -4.0297  -2.8391  -2.2011  -2.0862
    -2.0856  -0.2112  -0.2103   0.0617   0.1831   0.1837

          k =-0.3333 0.1925 0.0000 ( 61572 PWs)   bands (ev):

  -105.9635 -66.5490 -66.5486 -66.2466 -23.3318 -22.4333 -21.5735 -21.5245
   -19.9337 -19.8298 -19.0534 -18.3327 -18.2602 -16.4072 -15.8584 -15.8000
   -14.9697 -14.9104 -13.2881 -13.1105 -12.1846 -12.1668 -11.5084 -11.1013
   -10.9751 -10.7295 -10.4239 -10.3930 -10.1407 -10.1063  -9.4470  -9.3718
    -8.7514  -8.1447  -7.7738  -7.6133  -7.5955  -6.9078  -6.1640  -6.0894
    -4.9852  -4.8053  -4.6503  -4.1225  -4.0284  -2.7899  -2.0688  -2.0327
    -1.5690  -0.5589  -0.4968  -0.2728   0.1714   0.8510

          k = 0.3333 0.1925 0.0000 ( 61572 PWs)   bands (ev):

  -105.9635 -66.5490 -66.5486 -66.2466 -23.3318 -22.4335 -21.5733 -21.5245
   -19.9338 -19.8299 -19.0533 -18.3327 -18.2603 -16.4073 -15.8582 -15.7998
   -14.9697 -14.9104 -13.2882 -13.1106 -12.1844 -12.1667 -11.5083 -11.1015
   -10.9753 -10.7298 -10.4239 -10.3926 -10.1410 -10.1062  -9.4476  -9.3714
    -8.7510  -8.1453  -7.7728  -7.6142  -7.5950  -6.9076  -6.1652  -6.0887
    -4.9843  -4.8059  -4.6502  -4.1220  -4.0292  -2.7898  -2.0693  -2.0323
    -1.5694  -0.5587  -0.4965  -0.2732   0.1714   0.8511

     the Fermi energy is    -3.4327 ev

!    total energy              =    -675.01402406 Ry
     estimated scf accuracy    <       0.00000026 Ry
     smearing contrib. (-TS)   =       0.00067670 Ry
     internal energy E=F+TS    =    -675.01470076 Ry

     The total energy is F=E-TS. E is the sum of the following terms:
     one-electron contribution =   -3991.57885522 Ry
     hartree contribution      =    2002.62723499 Ry
     xc contribution           =    -119.48448053 Ry
     ewald contribution        =    1544.42813603 Ry
     one-center paw contrib.   =    -111.00673604 Ry

     convergence has been achieved in  31 iterations

     negative rho (up, down):  1.307E-03 0.000E+00

     Forces acting on atoms (cartesian axes, Ry/au):

     atom    1 type  1   force =    -0.00004548   -0.00000396    0.00009349
     atom    2 type  1   force =     0.00020865    0.00017845   -0.00046709
     atom    3 type  1   force =     0.00003653   -0.00000516   -0.00048149
     atom    4 type  1   force =    -0.00002166    0.00006534   -0.00000550
     atom    5 type  1   force =    -0.00006684    0.00010190   -0.00010713
     atom    6 type  1   force =     0.00001203   -0.00004470    0.00011700
     atom    7 type  1   force =     0.00004451    0.00026148   -0.00049091
     atom    8 type  1   force =    -0.00022471    0.00022190   -0.00000386
     atom    9 type  1   force =     0.00030901   -0.00008573    0.00008417
     atom   10 type  1   force =     0.00003223   -0.00032711    0.00088023
     atom   11 type  1   force =     0.00016222    0.00011681    0.00002967
     atom   12 type  1   force =    -0.00003600    0.00002695   -0.00044705
     atom   13 type  1   force =     0.00006571    0.00000933   -0.00001802
     atom   14 type  1   force =     0.00001410    0.00020978    0.00003095
     atom   15 type  1   force =    -0.00029754   -0.00013367    0.00081468
     atom   16 type  1   force =     0.00003408    0.00005471    0.00027066
     atom   17 type  1   force =     0.00002373    0.00005968    0.00030734
     atom   18 type  1   force =     0.00010805    0.00000123   -0.00013824
     atom   19 type  2   force =    -0.00035864   -0.00070723   -0.00046890

     Total force =     0.002026     Total SCF correction =     0.002423
     SCF correction compared to forces is large: reduce conv_thr to get better values


     Computing stress (Cartesian axis) and pressure


     negative rho (up, down):  1.307E-03 0.000E+00
          total   stress  (Ry/bohr**3)                   (kbar)     P=       13.65
   0.00013801  -0.00000000  -0.00000021           20.30       -0.00       -0.03
  -0.00000000   0.00013794  -0.00000040           -0.00       20.29       -0.06
  -0.00000021  -0.00000040   0.00000240           -0.03       -0.06        0.35


     Writing all to output data dir ./c2_qe.save/ :
     XML data file, charge density, pseudopotentials, collected wavefunctions

     init_run     :      2.47s CPU      2.66s WALL (       1 calls)
     electrons    :    114.65s CPU    129.02s WALL (       1 calls)
     forces       :      0.78s CPU      0.83s WALL (       1 calls)
     stress       :      3.12s CPU      3.20s WALL (       1 calls)

     Called by init_run:
     wfcinit      :      1.47s CPU      1.59s WALL (       1 calls)
     potinit      :      0.12s CPU      0.14s WALL (       1 calls)
     hinit0       :      0.66s CPU      0.68s WALL (       1 calls)

     Called by electrons:
     c_bands      :     77.64s CPU     83.47s WALL (      31 calls)
     sum_band     :     15.97s CPU     18.56s WALL (      31 calls)
     v_of_rho     :      1.45s CPU      1.74s WALL (      32 calls)
     newd         :      4.07s CPU      4.67s WALL (      32 calls)
     PAW_pot      :      2.12s CPU      2.13s WALL (      32 calls)
     mix_rho      :     13.53s CPU     18.56s WALL (      31 calls)

     Called by c_bands:
     init_us_2    :      2.98s CPU      3.01s WALL (     325 calls)
     cegterg      :     73.89s CPU     79.65s WALL (     155 calls)

     Called by *egterg:
     cdiaghg      :      4.20s CPU      4.25s WALL (     758 calls)
     h_psi        :     47.48s CPU     53.13s WALL (     763 calls)
     s_psi        :      7.66s CPU      7.72s WALL (     763 calls)
     g_psi        :      0.15s CPU      0.16s WALL (     603 calls)

     Called by h_psi:
     h_psi:calbec :      5.81s CPU      5.92s WALL (     763 calls)
     vloc_psi     :     32.89s CPU     38.36s WALL (     763 calls)
                                        0.00s GPU  (     763 calls)
     add_vuspsi   :      8.22s CPU      8.28s WALL (     763 calls)

     General routines
     calbec       :      8.82s CPU      8.95s WALL (    1003 calls)
     fft          :      1.25s CPU      1.63s WALL (     377 calls)
     ffts         :      4.94s CPU      9.83s WALL (    3721 calls)
     fftw         :     35.62s CPU     41.64s WALL (   46598 calls)

     Parallel routines

     PWSCF        :    121.38s CPU    138.06s WALL


   This run was terminated on:  22:20:33  25Jul2026            

=------------------------------------------------------------------------------=
   JOB DONE.
=------------------------------------------------------------------------------=
