SystemName	c2
SystemLabel	c2

DM.MixingWeight	0.1
MaxSCFIterations	100
SCFMustConverge	True

Spin	non-polarized
XC.functional	GGA
XC.authors	PBE

MeshCutoff	2312.9678120712156	eV
PAO.EnergyShift	0.13605693012183623	eV

NumberOfSpecies	2
NumberOfAtoms	40
%block ChemicalSpecieslabel
    1 6 C.1 C.1.psml
    2 1 H.2 H.2.psml
%endblock ChemicalSpecieslabel

%block PAO.BasisSizes
    C.1	DZP
    H.2	DZP
%endblock PAO.BasisSizes


LatticeConstant	1.0 Ang
%block LatticeVectors
    3.591774264265943 0.0 0.0
    -9.68081031404745e-20 3.591774264265943 0.0
    0.0 -0.0 43.469153490997286
%endblock LatticeVectors
AtomicCoordinatesFormat	Ang
%block AtomicCoordinatesAndAtomicSpecies
    0.10418813855594673 -0.10426219961169443 15.053696871070155 1
    0.8933343501650713 0.9024042156906165 15.90138725617726 1
    1.9001591100277406 1.6912699891492828 15.054152771137277 1
    2.6893052638538704 2.6982637327652106 15.901336670681832 1
    -0.0025108298188980323 1.7984547101042083 16.808175205585254 1
    0.8992587224528282 2.692455949843953 17.70434804117091 1
    1.793264891722462 0.0024783131501449865 16.808319312519817 1
    2.6952371328883515 0.8966211567900505 17.70421143652939 1
    0.0014403779663296381 -0.0014147004200834351 18.60308830573383 1
    0.8989543718728245 0.8969431682410415 19.50107614694258 1
    1.7974131166065963 1.7944682094804367 18.60309230894765 1
    2.6948749815482778 2.692893867871016 19.501160815424292 1
    0.0009465350420920608 1.7949289180214025 20.399567263779 1
    0.8988763703416707 2.6928362637959258 21.297771349185062 1
    1.7967973354242235 -0.0009557095746084623 20.399472590068676 1
    2.6946563190161257 0.8969963986120938 21.297770302526246 1
    0.0008153680795249554 -0.0009789358681165862 22.19604246296267 1
    0.8986170513729406 0.8969952167566875 23.094295902288614 1
    1.7966895423298719 1.7949053849392618 22.196184510899805 1
    2.6945386860783214 2.692979585523848 23.094276534659482 1
    0.0006711870345036254 1.7949613600725425 23.99251482583129 1
    0.8983153973060348 2.6931306366880987 24.890426697122315 1
    1.7965463285189303 -0.0008655263285681209 23.99267039950202 1
    2.694208175411045 0.8973794090500102 24.890517163696423 1
    0.0007706601799699038 -0.0011462297421911086 25.78913431814028 1
    0.9032712516208435 0.8921974336502491 26.685088602111563 1
    1.796696845124782 1.7948529959678055 25.789280375897356 1
    2.699237375646778 2.688200501617703 26.68523214843839 1
    0.007588769711053688 1.7879082018472134 27.592258541963382 1
    0.7976396593878211 2.7941289891917265 28.43971222834402 1
    1.8035854302080976 -0.0080430237725012 27.59202897046834 1
    2.593041756684224 0.9981647079396136 28.439601346965095 1
    1.0645257510347736 2.529240328407667 29.495936115286867 2
    0.07784639950350555 3.513964761755002 28.71720494950022 2
    1.8724748585897943 1.7173755710183367 28.716862573139935 2
    2.8583688933881666 0.7330000509322203 29.496065064486565 2
    -0.1603900209614292 0.15944684238814222 13.996309824616105 2
    0.8256247446500312 -0.8240912980463745 14.779589181310367 2
    1.6353091523250645 1.9546720681727026 13.997050166111476 2
    2.621153325511659 0.9711681260734873 14.779355051014585 2
%endblock AtomicCoordinatesAndAtomicSpecies
%block DM.InitSpin
%endblock DM.InitSpin

DM.UseSaveDM	True

#KPoint grid
%block kgrid_Monkhorst_Pack
     3       0       0  0.0
     0       3       0  0.0
     0       0       1  0.0
%endblock kgrid_Monkhorst_Pack

