&CONTROL
   calculation      = 'scf'
   tstress          = .true.
   tprnfor          = .true.
   prefix           = 'c2_qe'
   pseudo_dir       = 'pseudopotentials/qe'
/
&SYSTEM
   nbnd             = 70
   ecutwfc          = 80
   ecutrho          = 320
   ntyp             = 2
   nat              = 24
   ibrav            = 0
/
&ELECTRONS
   conv_thr         = 1e-06
/
&IONS
/
&CELL
/
&FCP
/
&RISM
/
ATOMIC_SPECIES
C 12.011 C.pbe-n-kjpaw_psl.1.0.0.UPF
H 1.008 H.pbe-rrkjus_psl.1.0.0.UPF

K_POINTS automatic
5 5 1  0 0 0

CELL_PARAMETERS angstrom
3.59177426426594 0.00000000000000 0.00000000000000
-0.00000000000000 3.59177426426594 0.00000000000000
0.00000000000000 -0.00000000000000 26.28560496246540

ATOMIC_POSITIONS angstrom
C -0.1125103276 0.0837450821 9.9724673990  
C 0.8930403737 0.8740617894 10.8143361821  
C 1.6834158263 1.8796002497 9.9732484108  
C 2.6890318649 2.6700599218 10.8143395255  
C -0.0063249103 1.7736647417 11.7158447670  
C 0.8895344563 2.6736806024 12.6056728800  
C 1.7895427041 -0.0222457576 11.7158605971  
C 2.6853881258 0.8778654764 12.6056491650  
C -0.0079018884 -0.0207032361 13.4989910108  
C 0.8879129475 0.8792310355 14.3888406941  
C 1.7879830406 1.7751707226 13.4990266737  
C 2.6837740001 2.6751622303 14.3888263808  
C -0.0117222036 1.7786664662 15.2902075171  
C 0.9936991129 2.5685833185 16.1318772564  
C 1.7842842966 -0.0173610504 15.2905223904  
C 2.7899147924 0.7730483216 16.1318010393  
H 0.7188763026 2.8419337277 17.1689681350  
H 1.7013783998 1.8595515962 16.4167253799  
H 2.5160793541 1.0469679206 17.1690090061  
H 3.4984692440 0.0648007376 16.4163252875  
H -0.8209722965 0.7915713406 9.6863415138  
H 0.1621820029 -0.1916539379 8.9358787861  
H 1.9564257798 1.6059119751 8.9357802581  
H 0.9746259621 2.5877513390 9.6895685634  

