&CONTROL
   calculation      = 'scf'
   prefix           = 'c2_qe'
   pseudo_dir       = 'pseudopotentials/qe'
/
&SYSTEM
   ecutwfc          = 30
   ecutrho          = 105
   ntyp             = 1
   nat              = 8
   ibrav            = 0
/
&ELECTRONS
   conv_thr         = 1e-08
/
&IONS
/
&CELL
/
&FCP
/
&RISM
/
ATOMIC_SPECIES
C 12.011 C.pbe-n-kjpaw_psl.1.0.0.UPF

K_POINTS automatic
4 4 4  0 0 0

CELL_PARAMETERS angstrom
3.56700000000000 0.00000000000000 0.00000000000000
0.00000000000000 3.56700000000000 0.00000000000000
0.00000000000000 0.00000000000000 3.56700000000000

ATOMIC_POSITIONS angstrom
C 0.0000000000 0.0000000000 0.0000000000  
C 0.8917500000 0.8917500000 0.8917500000  
C 0.0000000000 1.7835000000 1.7835000000  
C 0.8917500000 2.6752500000 2.6752500000  
C 1.7835000000 0.0000000000 1.7835000000  
C 2.6752500000 0.8917500000 2.6752500000  
C 1.7835000000 1.7835000000 0.0000000000  
C 2.6752500000 2.6752500000 0.8917500000  

