
     Program PWSCF v.7.5 starts on 25Jul2026 at 21:25: 6 

     This program is part of the open-source Quantum ESPRESSO suite
     for quantum simulation of materials; please cite
         "P. Giannozzi et al., J. Phys.:Condens. Matter 21 395502 (2009);
         "P. Giannozzi et al., J. Phys.:Condens. Matter 29 465901 (2017);
         "P. Giannozzi et al., J. Chem. Phys. 152 154105 (2020);
          URL http://www.quantum-espresso.org", 
     in publications or presentations arising from this work. More details at
     http://www.quantum-espresso.org/quote

     Parallel version (MPI & OpenMP), running on      10 processor cores
     Number of MPI processes:                10
     Threads/MPI process:                     1

     MPI processes distributed on     1 nodes
     213876 MiB available memory on the printing compute node when the environment starts

     Reading input from espresso.pwi
Warning: card &CELL ignored
Warning: card &FCP ignored
Warning: card &RISM ignored

     Current dimensions of program PWSCF are:
     Max number of different atomic species (ntypx) = 10
     Max number of k-points (npk) =  40000
     Max angular momentum in pseudopotentials (lmaxx) =  4
     file C.pbe-n-kjpaw_psl.1.0.0.UPF: wavefunction(s)  2S 2P renormalized
     Message from routine setup:
     using ibrav=0 with symmetry is DISCOURAGED, use correct ibrav instead

     R & G space division:  proc/nbgrp/npool/nimage =      10
     Subspace diagonalization in iterative solution of the eigenvalue problem:
     a serial algorithm will be used


     Parallelization info
     --------------------
     sticks:   dense  smooth     PW     G-vecs:    dense   smooth      PW
     Min          47      47     15                 5457     5457     903
     Max          48      48     16                 5480     5480     914
     Sum         475     475    151                54683    54683    9065

     Using Slab Decomposition



     bravais-lattice index     =            0
     lattice parameter (alat)  =       4.6487  a.u.
     unit-cell volume          =     565.8710 (a.u.)^3
     number of atoms/cell      =            2
     number of atomic types    =            1
     number of electrons       =         8.00
     number of Kohn-Sham states=            4
     kinetic-energy cutoff     =      80.0000  Ry
     charge density cutoff     =     320.0000  Ry
     scf convergence threshold =      1.0E-08
     mixing beta               =       0.7000
     number of iterations used =            8  plain     mixing
     Exchange-correlation= SLA  PW   PBX  PBC
                           (   1   4   3   4   0   0   0)

     celldm(1)=   4.648726  celldm(2)=   0.000000  celldm(3)=   0.000000
     celldm(4)=   0.000000  celldm(5)=   0.000000  celldm(6)=   0.000000

     crystal axes: (cart. coord. in units of alat)
               a(1) = (   1.000000   0.000000   0.000000 )  
               a(2) = (  -0.500000   0.866025   0.000000 )  
               a(3) = (   0.000000  -0.000000   6.504065 )  

     reciprocal axes: (cart. coord. in units 2 pi/alat)
               b(1) = (  1.000000  0.577350  0.000000 )  
               b(2) = ( -0.000000  1.154701  0.000000 )  
               b(3) = (  0.000000 -0.000000  0.153750 )  


     PseudoPot. # 1 for C  read from file:
     /lustre07/scratch/tanay11/siesta-qe-notebook-benchmark/pseudo_espresso/C.pbe-n-kjpaw_psl.1.0.0.UPF
     MD5 check sum: 5d2aebdfa2cae82b50a7e79e9516da0f
     Pseudo is Projector augmented-wave + core cor, Zval =  4.0
     Generated using "atomic" code by A. Dal Corso  v.5.1
     Shape of augmentation charge: PSQ
     Using radial grid of 1073 points,  4 beta functions with: 
                l(1) =   0
                l(2) =   0
                l(3) =   1
                l(4) =   1
     Q(r) pseudized with 0 coefficients 


     atomic species   valence    mass     pseudopotential
     C                 4.00    12.01100     C ( 1.00)

     24 Sym. Ops., with inversion, found (12 have fractional translation)



   Cartesian axes

     site n.     atom                  positions (alat units)
         1        C      tau(   1) = (   0.0000000   0.0000000   3.2520325  )
         2        C      tau(   2) = (   0.5000000   0.2886751   3.2520325  )

     number of k points=    24
                       cart. coord. in units 2pi/alat
        k(    1) = (   0.0000000   0.0000000   0.0000000), wk =   0.0102041
        k(    2) = (   0.0000000   0.0824786   0.0000000), wk =   0.0612245
        k(    3) = (   0.0000000   0.1649572   0.0000000), wk =   0.0612245
        k(    4) = (   0.0000000   0.2474358   0.0000000), wk =   0.0612245
        k(    5) = (   0.0000000   0.3299144   0.0000000), wk =   0.0612245
        k(    6) = (   0.0000000   0.4123930   0.0000000), wk =   0.0612245
        k(    7) = (   0.0000000   0.4948717   0.0000000), wk =   0.0612245
        k(    8) = (   0.0000000  -0.5773503   0.0000000), wk =   0.0306122
        k(    9) = (   0.0714286   0.1237179   0.0000000), wk =   0.0612245
        k(   10) = (   0.0714286   0.2061965   0.0000000), wk =   0.1224490
        k(   11) = (   0.0714286   0.2886751   0.0000000), wk =   0.1224490
        k(   12) = (   0.0714286   0.3711537   0.0000000), wk =   0.1224490
        k(   13) = (   0.0714286   0.4536324   0.0000000), wk =   0.1224490
        k(   14) = (   0.0714286   0.5361110   0.0000000), wk =   0.1224490
        k(   15) = (   0.1428571   0.2474358   0.0000000), wk =   0.0612245
        k(   16) = (   0.1428571   0.3299144   0.0000000), wk =   0.1224490
        k(   17) = (   0.1428571   0.4123930   0.0000000), wk =   0.1224490
        k(   18) = (   0.1428571   0.4948717   0.0000000), wk =   0.1224490
        k(   19) = (   0.1428571   0.5773503   0.0000000), wk =   0.0612245
        k(   20) = (   0.2142857   0.3711537   0.0000000), wk =   0.0612245
        k(   21) = (   0.2142857   0.4536324   0.0000000), wk =   0.1224490
        k(   22) = (   0.2142857   0.5361110   0.0000000), wk =   0.1224490
        k(   23) = (   0.2857143   0.4948717   0.0000000), wk =   0.0612245
        k(   24) = (   0.2857143   0.5773503   0.0000000), wk =   0.0612245

     Dense  grid:    54683 G-vectors     FFT dimensions: (  27,  27, 180)

     Estimated max dynamical RAM per process >       8.56 MB

     Estimated total dynamical RAM >      85.57 MB

     Check: negative core charge=   -0.000004

     Initial potential from superposition of free atoms

     starting charge       7.9999, renormalised to       8.0000

     negative rho (up, down):  3.115E-05 0.000E+00
     Starting wfcs are    8 randomized atomic wfcs
     Checking if some PAW data can be deallocated... 

     total cpu time spent up to now is        0.5 secs

     per-process dynamical memory:    86.4 Mb

     Self-consistent Calculation

     iteration #  1     ecut=    80.00 Ry     beta= 0.70
     Davidson diagonalization with overlap
     ethr =  1.00E-02,  avg # of iterations =  2.0

     negative rho (up, down):  1.026E-04 0.000E+00

     total cpu time spent up to now is        0.7 secs

     total energy              =     -36.86547279 Ry
     estimated scf accuracy    <       0.18358792 Ry

     iteration #  2     ecut=    80.00 Ry     beta= 0.70
     Davidson diagonalization with overlap
     ethr =  2.29E-03,  avg # of iterations =  2.0

     negative rho (up, down):  1.346E-04 0.000E+00

     total cpu time spent up to now is        0.8 secs

     total energy              =     -36.88744168 Ry
     estimated scf accuracy    <       0.00239405 Ry

     iteration #  3     ecut=    80.00 Ry     beta= 0.70
     Davidson diagonalization with overlap
     ethr =  2.99E-05,  avg # of iterations =  2.2

     negative rho (up, down):  1.455E-04 0.000E+00

     total cpu time spent up to now is        1.0 secs

     total energy              =     -36.88795198 Ry
     estimated scf accuracy    <       0.00016228 Ry

     iteration #  4     ecut=    80.00 Ry     beta= 0.70
     Davidson diagonalization with overlap
     ethr =  2.03E-06,  avg # of iterations =  2.5

     negative rho (up, down):  1.465E-04 0.000E+00

     total cpu time spent up to now is        1.2 secs

     total energy              =     -36.88798922 Ry
     estimated scf accuracy    <       0.00000156 Ry

     iteration #  5     ecut=    80.00 Ry     beta= 0.70
     Davidson diagonalization with overlap
     ethr =  1.94E-08,  avg # of iterations =  5.5

     negative rho (up, down):  1.465E-04 0.000E+00

     total cpu time spent up to now is        1.4 secs

     total energy              =     -36.88799446 Ry
     estimated scf accuracy    <       0.00000007 Ry

     iteration #  6     ecut=    80.00 Ry     beta= 0.70
     Davidson diagonalization with overlap
     ethr =  8.20E-10,  avg # of iterations =  3.7

     negative rho (up, down):  1.465E-04 0.000E+00

     total cpu time spent up to now is        1.6 secs

     End of self-consistent calculation

          k = 0.0000 0.0000 0.0000 (  6927 PWs)   bands (ev):

   -21.4352  -9.5205  -4.8994  -4.8994

          k = 0.0000 0.0825 0.0000 (  6923 PWs)   bands (ev):

   -21.3143  -9.3755  -5.3855  -5.1547

          k = 0.0000 0.1650 0.0000 (  6881 PWs)   bands (ev):

   -20.9524  -8.9435  -6.6583  -5.7878

          k = 0.0000 0.2474 0.0000 (  6873 PWs)   bands (ev):

   -20.3525  -8.3710  -8.2340  -6.5536

          k = 0.0000 0.3299 0.0000 (  6818 PWs)   bands (ev):

   -19.5204 -10.2530  -7.2689  -7.2685

          k = 0.0000 0.4124 0.0000 (  6822 PWs)   bands (ev):

   -18.4669 -12.1370  -7.8301  -6.0989

          k = 0.0000 0.4949 0.0000 (  6806 PWs)   bands (ev):

   -17.2213 -13.9084  -8.1836  -4.8843

          k = 0.0000-0.5774 0.0000 (  6810 PWs)   bands (ev):

   -16.1627 -15.1465  -8.3039  -4.2239

          k = 0.0714 0.1237 0.0000 (  6895 PWs)   bands (ev):

   -21.0729  -9.0870  -6.1989  -5.6657

          k = 0.0714 0.2062 0.0000 (  6853 PWs)   bands (ev):

   -20.5920  -8.5158  -7.5836  -6.4756

          k = 0.0714 0.2887 0.0000 (  6844 PWs)   bands (ev):

   -19.8760  -9.3158  -7.6763  -7.2829

          k = 0.0714 0.3712 0.0000 (  6826 PWs)   bands (ev):

   -18.9329 -11.1673  -7.9532  -6.6009

          k = 0.0714 0.4536 0.0000 (  6815 PWs)   bands (ev):

   -17.7795 -12.9841  -8.4246  -5.3749

          k = 0.0714 0.5361 0.0000 (  6798 PWs)   bands (ev):

   -16.4913 -14.6192  -8.6668  -4.3060

          k = 0.1429 0.2474 0.0000 (  6835 PWs)   bands (ev):

   -19.9950  -8.7605  -7.8134  -7.5567

          k = 0.1429 0.3299 0.0000 (  6832 PWs)   bands (ev):

   -19.1678 -10.2610  -8.5221  -6.8572

          k = 0.1429 0.4124 0.0000 (  6845 PWs)   bands (ev):

   -18.1227 -11.9627  -9.1878  -5.6951

          k = 0.1429 0.4949 0.0000 (  6815 PWs)   bands (ev):

   -16.8913 -13.6475  -9.5788  -4.4715

          k = 0.1429 0.5774 0.0000 (  6814 PWs)   bands (ev):

   -15.8525 -14.8457  -9.7085  -3.7815

          k = 0.2143 0.3712 0.0000 (  6839 PWs)   bands (ev):

   -18.2382 -11.2960  -9.8000  -5.8056

          k = 0.2143 0.4536 0.0000 (  6849 PWs)   bands (ev):

   -17.1079 -12.6424 -10.6166  -4.5895

          k = 0.2143 0.5361 0.0000 (  6820 PWs)   bands (ev):

   -15.8572 -14.0923 -10.9624  -3.4594

          k = 0.2857 0.4949 0.0000 (  6825 PWs)   bands (ev):

   -15.9301 -13.3923 -11.7781  -3.3638

          k = 0.2857 0.5774 0.0000 (  6838 PWs)   bands (ev):

   -14.9247 -14.2570 -12.1749  -2.4698

     highest occupied level (ev):    -2.4698

!    total energy              =     -36.88799449 Ry
     total all-electron energy =      -152.416190 Ry
     estimated scf accuracy    <          4.5E-09 Ry

     The total energy is the sum of the following terms:
     one-electron contribution =    -171.00891731 Ry
     hartree contribution      =      87.08491220 Ry
     xc contribution           =      -9.28505491 Ry
     ewald contribution        =      68.65559261 Ry
     one-center paw contrib.   =     -12.33452708 Ry

     convergence has been achieved in   6 iterations

     Writing all to output data dir ./c2_qe.save/ :
     XML data file, charge density, pseudopotentials, collected wavefunctions

     init_run     :      0.44s CPU      0.45s WALL (       1 calls)
     electrons    :      1.06s CPU      1.13s WALL (       1 calls)

     Called by init_run:
     wfcinit      :      0.08s CPU      0.08s WALL (       1 calls)
     potinit      :      0.02s CPU      0.02s WALL (       1 calls)
     hinit0       :      0.31s CPU      0.31s WALL (       1 calls)

     Called by electrons:
     c_bands      :      0.82s CPU      0.83s WALL (       6 calls)
     sum_band     :      0.13s CPU      0.13s WALL (       6 calls)
     v_of_rho     :      0.04s CPU      0.04s WALL (       7 calls)
     newd         :      0.02s CPU      0.02s WALL (       7 calls)
     PAW_pot      :      0.08s CPU      0.08s WALL (       7 calls)
     mix_rho      :      0.00s CPU      0.00s WALL (       6 calls)

     Called by c_bands:
     init_us_2    :      0.03s CPU      0.03s WALL (     312 calls)
     cegterg      :      0.78s CPU      0.80s WALL (     144 calls)

     Called by *egterg:
     cdiaghg      :      0.07s CPU      0.07s WALL (     576 calls)
     h_psi        :      0.66s CPU      0.67s WALL (     600 calls)
     s_psi        :      0.02s CPU      0.02s WALL (     600 calls)
     g_psi        :      0.00s CPU      0.00s WALL (     432 calls)

     Called by h_psi:
     h_psi:calbec :      0.04s CPU      0.04s WALL (     600 calls)
     vloc_psi     :      0.59s CPU      0.60s WALL (     600 calls)
                                        0.00s GPU  (     600 calls)
     add_vuspsi   :      0.02s CPU      0.02s WALL (     600 calls)

     General routines
     calbec       :      0.05s CPU      0.05s WALL (     744 calls)
     fft          :      0.31s CPU      0.31s WALL (      77 calls)
     ffts         :      0.00s CPU      0.00s WALL (       6 calls)
     fftw         :      0.62s CPU      0.63s WALL (    4674 calls)

     Parallel routines

     PWSCF        :      1.61s CPU      2.30s WALL


   This run was terminated on:  21:25: 8  25Jul2026            

=------------------------------------------------------------------------------=
   JOB DONE.
=------------------------------------------------------------------------------=
