
     Program PWSCF v.7.5 starts on 25Jul2026 at 20:25:47 

     This program is part of the open-source Quantum ESPRESSO suite
     for quantum simulation of materials; please cite
         "P. Giannozzi et al., J. Phys.:Condens. Matter 21 395502 (2009);
         "P. Giannozzi et al., J. Phys.:Condens. Matter 29 465901 (2017);
         "P. Giannozzi et al., J. Chem. Phys. 152 154105 (2020);
          URL http://www.quantum-espresso.org", 
     in publications or presentations arising from this work. More details at
     http://www.quantum-espresso.org/quote

     Parallel version (MPI & OpenMP), running on      10 processor cores
     Number of MPI processes:                10
     Threads/MPI process:                     1

     MPI processes distributed on     1 nodes
     214089 MiB available memory on the printing compute node when the environment starts

     Reading input from espresso.pwi
Warning: card &CELL ignored
Warning: card &FCP ignored
Warning: card &RISM ignored

     Current dimensions of program PWSCF are:
     Max number of different atomic species (ntypx) = 10
     Max number of k-points (npk) =  40000
     Max angular momentum in pseudopotentials (lmaxx) =  4
     file C.pbe-n-kjpaw_psl.1.0.0.UPF: wavefunction(s)  2S 2P renormalized
     Found identity + (  0.0000 -0.5000 -0.5000) symmetry
     This is a supercell, fractional translations are disabled
     Message from routine setup:
     using ibrav=0 with symmetry is DISCOURAGED, use correct ibrav instead

     R & G space division:  proc/nbgrp/npool/nimage =      10
     Subspace diagonalization in iterative solution of the eigenvalue problem:
     a serial algorithm will be used


     Parallelization info
     --------------------
     sticks:   dense  smooth     PW     G-vecs:    dense   smooth      PW
     Min         130     130     37                 3548     3548     543
     Max         131     131     38                 3553     3553     546
     Sum        1305    1305    373                35513    35513    5449

     Using Slab Decomposition



     bravais-lattice index     =            0
     lattice parameter (alat)  =       6.7407  a.u.
     unit-cell volume          =     306.2710 (a.u.)^3
     number of atoms/cell      =            8
     number of atomic types    =            1
     number of electrons       =        32.00
     number of Kohn-Sham states=           16
     kinetic-energy cutoff     =      90.0000  Ry
     charge density cutoff     =     360.0000  Ry
     scf convergence threshold =      1.0E-08
     mixing beta               =       0.7000
     number of iterations used =            8  plain     mixing
     Exchange-correlation= SLA  PW   PBX  PBC
                           (   1   4   3   4   0   0   0)

     celldm(1)=   6.740653  celldm(2)=   0.000000  celldm(3)=   0.000000
     celldm(4)=   0.000000  celldm(5)=   0.000000  celldm(6)=   0.000000

     crystal axes: (cart. coord. in units of alat)
               a(1) = (   1.000000   0.000000   0.000000 )  
               a(2) = (   0.000000   1.000000   0.000000 )  
               a(3) = (   0.000000   0.000000   1.000000 )  

     reciprocal axes: (cart. coord. in units 2 pi/alat)
               b(1) = (  1.000000  0.000000  0.000000 )  
               b(2) = (  0.000000  1.000000  0.000000 )  
               b(3) = (  0.000000  0.000000  1.000000 )  


     PseudoPot. # 1 for C  read from file:
     /lustre07/scratch/tanay11/siesta-qe-notebook-benchmark/pseudo_espresso/C.pbe-n-kjpaw_psl.1.0.0.UPF
     MD5 check sum: 5d2aebdfa2cae82b50a7e79e9516da0f
     Pseudo is Projector augmented-wave + core cor, Zval =  4.0
     Generated using "atomic" code by A. Dal Corso  v.5.1
     Shape of augmentation charge: PSQ
     Using radial grid of 1073 points,  4 beta functions with: 
                l(1) =   0
                l(2) =   0
                l(3) =   1
                l(4) =   1
     Q(r) pseudized with 0 coefficients 


     atomic species   valence    mass     pseudopotential
     C                 4.00    12.01100     C ( 1.00)

     24 Sym. Ops. (no inversion) found



   Cartesian axes

     site n.     atom                  positions (alat units)
         1        C      tau(   1) = (   0.0000000   0.0000000   0.0000000  )
         2        C      tau(   2) = (   0.2500000   0.2500000   0.2500000  )
         3        C      tau(   3) = (   0.0000000   0.5000000   0.5000000  )
         4        C      tau(   4) = (   0.2500000   0.7500000   0.7500000  )
         5        C      tau(   5) = (   0.5000000   0.0000000   0.5000000  )
         6        C      tau(   6) = (   0.7500000   0.2500000   0.7500000  )
         7        C      tau(   7) = (   0.5000000   0.5000000   0.0000000  )
         8        C      tau(   8) = (   0.7500000   0.7500000   0.2500000  )

     number of k points=    10
                       cart. coord. in units 2pi/alat
        k(    1) = (   0.0000000   0.0000000   0.0000000), wk =   0.0160000
        k(    2) = (   0.0000000   0.0000000   0.2000000), wk =   0.0960000
        k(    3) = (   0.0000000   0.0000000   0.4000000), wk =   0.0960000
        k(    4) = (   0.0000000   0.2000000   0.2000000), wk =   0.1920000
        k(    5) = (   0.0000000   0.2000000   0.4000000), wk =   0.3840000
        k(    6) = (   0.0000000   0.4000000   0.4000000), wk =   0.1920000
        k(    7) = (   0.2000000   0.2000000   0.2000000), wk =   0.1280000
        k(    8) = (   0.2000000   0.2000000   0.4000000), wk =   0.3840000
        k(    9) = (   0.2000000   0.4000000   0.4000000), wk =   0.3840000
        k(   10) = (   0.4000000   0.4000000   0.4000000), wk =   0.1280000

     Dense  grid:    35513 G-vectors     FFT dimensions: (  45,  45,  45)

     Estimated max dynamical RAM per process >       6.98 MB

     Estimated total dynamical RAM >      69.84 MB

     Check: negative core charge=   -0.000013

     Initial potential from superposition of free atoms

     starting charge      31.9997, renormalised to      32.0000
     Starting wfcs are   32 randomized atomic wfcs
     Checking if some PAW data can be deallocated... 

     total cpu time spent up to now is        0.4 secs

     per-process dynamical memory:    86.3 Mb

     Self-consistent Calculation

     iteration #  1     ecut=    90.00 Ry     beta= 0.70
     Davidson diagonalization with overlap
     ethr =  1.00E-02,  avg # of iterations =  2.0

     total cpu time spent up to now is        0.6 secs

     total energy              =    -147.44609516 Ry
     estimated scf accuracy    <       0.44538721 Ry

     iteration #  2     ecut=    90.00 Ry     beta= 0.70
     Davidson diagonalization with overlap
     ethr =  1.39E-03,  avg # of iterations =  1.0

     total cpu time spent up to now is        0.8 secs

     total energy              =    -147.46931889 Ry
     estimated scf accuracy    <       0.01239624 Ry

     iteration #  3     ecut=    90.00 Ry     beta= 0.70
     Davidson diagonalization with overlap
     ethr =  3.87E-05,  avg # of iterations =  2.5

     total cpu time spent up to now is        1.0 secs

     total energy              =    -147.47232391 Ry
     estimated scf accuracy    <       0.00024106 Ry

     iteration #  4     ecut=    90.00 Ry     beta= 0.70
     Davidson diagonalization with overlap
     ethr =  7.53E-07,  avg # of iterations =  4.6

     total cpu time spent up to now is        1.3 secs

     total energy              =    -147.47248186 Ry
     estimated scf accuracy    <       0.00000481 Ry

     iteration #  5     ecut=    90.00 Ry     beta= 0.70
     Davidson diagonalization with overlap
     ethr =  1.50E-08,  avg # of iterations =  5.3

     total cpu time spent up to now is        1.6 secs

     total energy              =    -147.47248836 Ry
     estimated scf accuracy    <       0.00000037 Ry

     iteration #  6     ecut=    90.00 Ry     beta= 0.70
     Davidson diagonalization with overlap
     ethr =  1.17E-09,  avg # of iterations =  3.1

     total cpu time spent up to now is        1.8 secs

     total energy              =    -147.47248846 Ry
     estimated scf accuracy    <       0.00000001 Ry

     iteration #  7     ecut=    90.00 Ry     beta= 0.70
     Davidson diagonalization with overlap
     ethr =  3.89E-11,  avg # of iterations =  3.9

     total cpu time spent up to now is        2.1 secs

     End of self-consistent calculation

          k = 0.0000 0.0000 0.0000 (  4385 PWs)   bands (ev):

    -8.1288   0.5814   0.5814   0.5814   0.5814   0.5814   0.5814   7.0452
     7.0452   7.0452   7.0452   7.0452   7.0452  13.3474  13.3474  13.3474

          k = 0.0000 0.0000 0.2000 (  4428 PWs)   bands (ev):

    -7.7601  -2.4082   0.8060   0.8060   0.8060   0.8060   3.9108   6.3369
     6.3369   6.3369   6.3369   7.4045   7.4045  12.1214  12.1214  12.4763

          k = 0.0000 0.0000 0.4000 (  4416 PWs)   bands (ev):

    -6.6614  -4.8588   1.2717   1.2717   1.2718   1.2718   5.2220   5.2220
     5.2220   5.2220   7.2650   8.4591   8.4591  10.1211  10.1211  10.2583

          k = 0.0000 0.2000 0.2000 (  4414 PWs)   bands (ev):

    -7.3929  -2.0918  -2.0918   0.6301   1.2426   3.8187   3.8188   4.5718
     6.5605   6.5605   7.0541   7.0541   7.6516  10.4148  11.0186  12.8718

          k = 0.0000 0.2000 0.4000 (  4407 PWs)   bands (ev):

    -6.2997  -4.5103  -1.2011  -0.0313   2.1105   3.1801   4.0327   5.0267
     6.2736   6.9654   7.5366   7.5455   8.3113   9.0106   9.1258  11.4455

          k = 0.0000 0.4000 0.4000 (  4412 PWs)   bands (ev):

    -5.2266  -3.4869  -3.4869  -1.8840   3.2028   4.4840   4.6693   4.6694
     5.8487   5.8487   6.3678   7.3434   9.2950   9.5621   9.5622  11.3607

          k = 0.2000 0.2000 0.2000 (  4404 PWs)   bands (ev):

    -7.0274  -1.7995  -1.7995  -1.7995   3.1103   3.1103   3.1104   5.8279
     5.8280   5.8280   7.9834   7.9834   7.9834   8.4663  12.0244  12.0244

          k = 0.2000 0.2000 0.4000 (  4413 PWs)   bands (ev):

    -5.9405  -4.1676  -1.0976  -1.0976   1.6758   1.6758   4.5531   6.0057
     6.0057   6.3086   8.0077   8.0077   8.6434   8.9447  10.4070  11.1426

          k = 0.2000 0.4000 0.4000 (  4429 PWs)   bands (ev):

    -4.8779  -3.1755  -3.1755  -1.7604   1.1638   2.5197   2.5197   4.1539
     6.9746   8.0146   8.0146   9.4466   9.5053   9.6861   9.6861  11.2006

          k = 0.4000 0.4000 0.4000 (  4422 PWs)   bands (ev):

    -3.8647  -2.4084  -2.4084  -2.4084   0.5161   0.5161   0.5162   1.9350
     9.6390   9.6391   9.6391  10.0578  10.0578  10.0578  10.7201  10.7201

     highest occupied level (ev):    13.3474

!    total energy              =    -147.47248846 Ry
     total all-electron energy =      -609.585271 Ry
     estimated scf accuracy    <          4.0E-09 Ry

     The total energy is the sum of the following terms:
     one-electron contribution =      33.86449806 Ry
     hartree contribution      =       7.76311601 Ry
     xc contribution           =     -37.50542083 Ry
     ewald contribution        =    -102.29129742 Ry
     one-center paw contrib.   =     -49.30338429 Ry

     convergence has been achieved in   7 iterations

     Writing all to output data dir ./c2_qe.save/ :
     XML data file, charge density, pseudopotentials, collected wavefunctions

     init_run     :      0.29s CPU      0.29s WALL (       1 calls)
     electrons    :      1.74s CPU      1.77s WALL (       1 calls)

     Called by init_run:
     wfcinit      :      0.10s CPU      0.10s WALL (       1 calls)
     potinit      :      0.05s CPU      0.05s WALL (       1 calls)
     hinit0       :      0.12s CPU      0.12s WALL (       1 calls)

     Called by electrons:
     c_bands      :      1.26s CPU      1.27s WALL (       7 calls)
     sum_band     :      0.16s CPU      0.16s WALL (       7 calls)
     v_of_rho     :      0.03s CPU      0.03s WALL (       8 calls)
     newd         :      0.02s CPU      0.02s WALL (       8 calls)
     PAW_pot      :      0.30s CPU      0.30s WALL (       8 calls)
     mix_rho      :      0.00s CPU      0.00s WALL (       7 calls)

     Called by c_bands:
     init_us_2    :      0.02s CPU      0.02s WALL (     150 calls)
     cegterg      :      1.23s CPU      1.23s WALL (      70 calls)

     Called by *egterg:
     cdiaghg      :      0.22s CPU      0.22s WALL (     294 calls)
     h_psi        :      0.93s CPU      0.94s WALL (     304 calls)
     s_psi        :      0.05s CPU      0.05s WALL (     304 calls)
     g_psi        :      0.00s CPU      0.00s WALL (     224 calls)

     Called by h_psi:
     h_psi:calbec :      0.06s CPU      0.06s WALL (     304 calls)
     vloc_psi     :      0.83s CPU      0.83s WALL (     304 calls)
                                        0.00s GPU  (     304 calls)
     add_vuspsi   :      0.05s CPU      0.05s WALL (     304 calls)

     General routines
     calbec       :      0.07s CPU      0.07s WALL (     374 calls)
     fft          :      0.12s CPU      0.12s WALL (      88 calls)
     ffts         :      0.00s CPU      0.00s WALL (       7 calls)
     fftw         :      0.87s CPU      0.88s WALL (    8886 calls)

     Parallel routines

     PWSCF        :      2.25s CPU      2.61s WALL


   This run was terminated on:  20:25:50  25Jul2026            

=------------------------------------------------------------------------------=
   JOB DONE.
=------------------------------------------------------------------------------=
