
     Program PWSCF v.7.5 starts on 25Jul2026 at 21:29:34 

     This program is part of the open-source Quantum ESPRESSO suite
     for quantum simulation of materials; please cite
         "P. Giannozzi et al., J. Phys.:Condens. Matter 21 395502 (2009);
         "P. Giannozzi et al., J. Phys.:Condens. Matter 29 465901 (2017);
         "P. Giannozzi et al., J. Chem. Phys. 152 154105 (2020);
          URL http://www.quantum-espresso.org", 
     in publications or presentations arising from this work. More details at
     http://www.quantum-espresso.org/quote

     Parallel version (MPI & OpenMP), running on      10 processor cores
     Number of MPI processes:                10
     Threads/MPI process:                     1

     MPI processes distributed on     1 nodes
     214061 MiB available memory on the printing compute node when the environment starts

     Reading input from espresso.pwi
Warning: card &CELL ignored
Warning: card &FCP ignored
Warning: card &RISM ignored

     Current dimensions of program PWSCF are:
     Max number of different atomic species (ntypx) = 10
     Max number of k-points (npk) =  40000
     Max angular momentum in pseudopotentials (lmaxx) =  4
     file C.pbe-n-kjpaw_psl.1.0.0.UPF: wavefunction(s)  2S 2P renormalized
     Message from routine setup:
     using ibrav=0 with symmetry is DISCOURAGED, use correct ibrav instead

     R & G space division:  proc/nbgrp/npool/nimage =      10
     Subspace diagonalization in iterative solution of the eigenvalue problem:
     a serial algorithm will be used


     Parallelization info
     --------------------
     sticks:   dense  smooth     PW     G-vecs:    dense   smooth      PW
     Min          53      53     16                 6501     6501    1072
     Max          54      54     17                 6512     6512    1088
     Sum         535     535    163                65049    65049   10785

     Using Slab Decomposition



     bravais-lattice index     =            0
     lattice parameter (alat)  =       4.6487  a.u.
     unit-cell volume          =     565.8710 (a.u.)^3
     number of atoms/cell      =            2
     number of atomic types    =            1
     number of electrons       =         8.00
     number of Kohn-Sham states=            4
     kinetic-energy cutoff     =      90.0000  Ry
     charge density cutoff     =     360.0000  Ry
     scf convergence threshold =      1.0E-08
     mixing beta               =       0.7000
     number of iterations used =            8  plain     mixing
     Exchange-correlation= SLA  PW   PBX  PBC
                           (   1   4   3   4   0   0   0)

     celldm(1)=   4.648726  celldm(2)=   0.000000  celldm(3)=   0.000000
     celldm(4)=   0.000000  celldm(5)=   0.000000  celldm(6)=   0.000000

     crystal axes: (cart. coord. in units of alat)
               a(1) = (   1.000000   0.000000   0.000000 )  
               a(2) = (  -0.500000   0.866025   0.000000 )  
               a(3) = (   0.000000  -0.000000   6.504065 )  

     reciprocal axes: (cart. coord. in units 2 pi/alat)
               b(1) = (  1.000000  0.577350  0.000000 )  
               b(2) = ( -0.000000  1.154701  0.000000 )  
               b(3) = (  0.000000 -0.000000  0.153750 )  


     PseudoPot. # 1 for C  read from file:
     /lustre07/scratch/tanay11/siesta-qe-notebook-benchmark/pseudo_espresso/C.pbe-n-kjpaw_psl.1.0.0.UPF
     MD5 check sum: 5d2aebdfa2cae82b50a7e79e9516da0f
     Pseudo is Projector augmented-wave + core cor, Zval =  4.0
     Generated using "atomic" code by A. Dal Corso  v.5.1
     Shape of augmentation charge: PSQ
     Using radial grid of 1073 points,  4 beta functions with: 
                l(1) =   0
                l(2) =   0
                l(3) =   1
                l(4) =   1
     Q(r) pseudized with 0 coefficients 


     atomic species   valence    mass     pseudopotential
     C                 4.00    12.01100     C ( 1.00)

     24 Sym. Ops., with inversion, found (12 have fractional translation)



   Cartesian axes

     site n.     atom                  positions (alat units)
         1        C      tau(   1) = (   0.0000000   0.0000000   3.2520325  )
         2        C      tau(   2) = (   0.5000000   0.2886751   3.2520325  )

     number of k points=    19
                       cart. coord. in units 2pi/alat
        k(    1) = (   0.0000000   0.0000000   0.0000000), wk =   0.0138889
        k(    2) = (   0.0000000   0.0962250   0.0000000), wk =   0.0833333
        k(    3) = (   0.0000000   0.1924501   0.0000000), wk =   0.0833333
        k(    4) = (   0.0000000   0.2886751   0.0000000), wk =   0.0833333
        k(    5) = (   0.0000000   0.3849002   0.0000000), wk =   0.0833333
        k(    6) = (   0.0000000   0.4811252   0.0000000), wk =   0.0833333
        k(    7) = (   0.0000000  -0.5773503   0.0000000), wk =   0.0416667
        k(    8) = (   0.0833333   0.1443376   0.0000000), wk =   0.0833333
        k(    9) = (   0.0833333   0.2405626   0.0000000), wk =   0.1666667
        k(   10) = (   0.0833333   0.3367877   0.0000000), wk =   0.1666667
        k(   11) = (   0.0833333   0.4330127   0.0000000), wk =   0.1666667
        k(   12) = (   0.0833333   0.5292377   0.0000000), wk =   0.1666667
        k(   13) = (   0.1666667   0.2886751   0.0000000), wk =   0.0833333
        k(   14) = (   0.1666667   0.3849002   0.0000000), wk =   0.1666667
        k(   15) = (   0.1666667   0.4811252   0.0000000), wk =   0.1666667
        k(   16) = (   0.1666667   0.5773503   0.0000000), wk =   0.0833333
        k(   17) = (   0.2500000   0.4330127   0.0000000), wk =   0.0833333
        k(   18) = (   0.2500000   0.5292377   0.0000000), wk =   0.1666667
        k(   19) = (   0.3333333   0.5773503   0.0000000), wk =   0.0277778

     Dense  grid:    65049 G-vectors     FFT dimensions: (  30,  30, 192)

     Estimated max dynamical RAM per process >      10.03 MB

     Estimated total dynamical RAM >     100.33 MB

     Check: negative core charge=   -0.000005

     Initial potential from superposition of free atoms

     starting charge       7.9999, renormalised to       8.0000

     negative rho (up, down):  1.170E-04 0.000E+00
     Starting wfcs are    8 randomized atomic wfcs
     Checking if some PAW data can be deallocated... 

     total cpu time spent up to now is        0.6 secs

     per-process dynamical memory:    87.1 Mb

     Self-consistent Calculation

     iteration #  1     ecut=    90.00 Ry     beta= 0.70
     Davidson diagonalization with overlap
     ethr =  1.00E-02,  avg # of iterations =  2.0

     negative rho (up, down):  1.926E-04 0.000E+00

     total cpu time spent up to now is        0.7 secs

     total energy              =     -36.86482571 Ry
     estimated scf accuracy    <       0.18374055 Ry

     iteration #  2     ecut=    90.00 Ry     beta= 0.70
     Davidson diagonalization with overlap
     ethr =  2.30E-03,  avg # of iterations =  2.0

     negative rho (up, down):  2.250E-04 0.000E+00

     total cpu time spent up to now is        0.8 secs

     total energy              =     -36.88689961 Ry
     estimated scf accuracy    <       0.00239107 Ry

     iteration #  3     ecut=    90.00 Ry     beta= 0.70
     Davidson diagonalization with overlap
     ethr =  2.99E-05,  avg # of iterations =  2.3

     negative rho (up, down):  2.353E-04 0.000E+00

     total cpu time spent up to now is        1.0 secs

     total energy              =     -36.88741801 Ry
     estimated scf accuracy    <       0.00016198 Ry

     iteration #  4     ecut=    90.00 Ry     beta= 0.70
     Davidson diagonalization with overlap
     ethr =  2.02E-06,  avg # of iterations =  2.6

     negative rho (up, down):  2.363E-04 0.000E+00

     total cpu time spent up to now is        1.1 secs

     total energy              =     -36.88745727 Ry
     estimated scf accuracy    <       0.00000141 Ry

     iteration #  5     ecut=    90.00 Ry     beta= 0.70
     Davidson diagonalization with overlap
     ethr =  1.76E-08,  avg # of iterations =  5.6

     negative rho (up, down):  2.364E-04 0.000E+00

     total cpu time spent up to now is        1.4 secs

     total energy              =     -36.88746179 Ry
     estimated scf accuracy    <       0.00000006 Ry

     iteration #  6     ecut=    90.00 Ry     beta= 0.70
     Davidson diagonalization with overlap
     ethr =  7.45E-10,  avg # of iterations =  3.3

     negative rho (up, down):  2.364E-04 0.000E+00

     total cpu time spent up to now is        1.5 secs

     End of self-consistent calculation

          k = 0.0000 0.0000 0.0000 (  8017 PWs)   bands (ev):

   -21.4350  -9.5202  -4.8991  -4.8991

          k = 0.0000 0.0962 0.0000 (  8068 PWs)   bands (ev):

   -21.2705  -9.3230  -5.5519  -5.2403

          k = 0.0000 0.1925 0.0000 (  8074 PWs)   bands (ev):

   -20.7784  -8.7368  -7.1958  -6.0389

          k = 0.0000 0.2887 0.0000 (  8136 PWs)   bands (ev):

   -19.9648  -9.3030  -7.7808  -6.9252

          k = 0.0000 0.3849 0.0000 (  8166 PWs)   bands (ev):

   -18.8414 -11.5159  -7.6639  -6.5053

          k = 0.0000 0.4811 0.0000 (  8180 PWs)   bands (ev):

   -17.4389 -13.6261  -8.1401  -5.0740

          k = 0.0000-0.5774 0.0000 (  8180 PWs)   bands (ev):

   -16.1625 -15.1463  -8.3036  -4.2236

          k = 0.0833 0.1443 0.0000 (  8103 PWs)   bands (ev):

   -20.9422  -8.9312  -6.5890  -5.9230

          k = 0.0833 0.2406 0.0000 (  8134 PWs)   bands (ev):

   -20.2893  -8.3054  -8.1589  -6.9282

          k = 0.0833 0.3368 0.0000 (  8143 PWs)   bands (ev):

   -19.3207 -10.3875  -7.8201  -7.0367

          k = 0.0833 0.4330 0.0000 (  8182 PWs)   bands (ev):

   -18.0548 -12.5201  -8.4589  -5.6490

          k = 0.0833 0.5292 0.0000 (  8170 PWs)   bands (ev):

   -16.5664 -14.4728  -8.7894  -4.3313

          k = 0.1667 0.2887 0.0000 (  8159 PWs)   bands (ev):

   -19.4815  -9.6390  -8.2999  -7.2165

          k = 0.1667 0.3849 0.0000 (  8187 PWs)   bands (ev):

   -18.3690 -11.3740  -9.3616  -5.9562

          k = 0.1667 0.4811 0.0000 (  8189 PWs)   bands (ev):

   -16.9865 -13.2950  -9.9396  -4.5208

          k = 0.1667 0.5774 0.0000 (  8183 PWs)   bands (ev):

   -15.7403 -14.7430 -10.1251  -3.6221

          k = 0.2500 0.4330 0.0000 (  8203 PWs)   bands (ev):

   -17.1352 -12.4098 -10.8561  -4.6056

          k = 0.2500 0.5292 0.0000 (  8184 PWs)   bands (ev):

   -15.7046 -13.8401 -11.5663  -3.2111

          k = 0.3333 0.5774 0.0000 (  8187 PWs)   bands (ev):

   -14.4797 -14.4797 -12.4745  -1.8469

     highest occupied level (ev):    -1.8469

!    total energy              =     -36.88746181 Ry
     total all-electron energy =      -152.415657 Ry
     estimated scf accuracy    <          3.5E-09 Ry

     The total energy is the sum of the following terms:
     one-electron contribution =    -171.00840920 Ry
     hartree contribution      =      87.08490766 Ry
     xc contribution           =      -9.28503351 Ry
     ewald contribution        =      68.65559261 Ry
     one-center paw contrib.   =     -12.33451936 Ry

     convergence has been achieved in   6 iterations

     Writing all to output data dir ./c2_qe.save/ :
     XML data file, charge density, pseudopotentials, collected wavefunctions

     init_run     :      0.48s CPU      0.49s WALL (       1 calls)
     electrons    :      0.95s CPU      1.01s WALL (       1 calls)

     Called by init_run:
     wfcinit      :      0.07s CPU      0.07s WALL (       1 calls)
     potinit      :      0.02s CPU      0.02s WALL (       1 calls)
     hinit0       :      0.35s CPU      0.35s WALL (       1 calls)

     Called by electrons:
     c_bands      :      0.69s CPU      0.69s WALL (       6 calls)
     sum_band     :      0.12s CPU      0.12s WALL (       6 calls)
     v_of_rho     :      0.05s CPU      0.05s WALL (       7 calls)
     newd         :      0.02s CPU      0.02s WALL (       7 calls)
     PAW_pot      :      0.08s CPU      0.08s WALL (       7 calls)
     mix_rho      :      0.00s CPU      0.00s WALL (       6 calls)

     Called by c_bands:
     init_us_2    :      0.03s CPU      0.03s WALL (     247 calls)
     cegterg      :      0.66s CPU      0.66s WALL (     114 calls)

     Called by *egterg:
     cdiaghg      :      0.06s CPU      0.06s WALL (     450 calls)
     h_psi        :      0.54s CPU      0.55s WALL (     469 calls)
     s_psi        :      0.02s CPU      0.02s WALL (     469 calls)
     g_psi        :      0.00s CPU      0.00s WALL (     336 calls)

     Called by h_psi:
     h_psi:calbec :      0.04s CPU      0.04s WALL (     469 calls)
     vloc_psi     :      0.48s CPU      0.49s WALL (     469 calls)
                                        0.00s GPU  (     469 calls)
     add_vuspsi   :      0.02s CPU      0.02s WALL (     469 calls)

     General routines
     calbec       :      0.04s CPU      0.05s WALL (     583 calls)
     fft          :      0.36s CPU      0.36s WALL (      77 calls)
     ffts         :      0.00s CPU      0.00s WALL (       6 calls)
     fftw         :      0.50s CPU      0.50s WALL (    3678 calls)

     Parallel routines

     PWSCF        :      1.54s CPU      3.05s WALL


   This run was terminated on:  21:29:37  25Jul2026            

=------------------------------------------------------------------------------=
   JOB DONE.
=------------------------------------------------------------------------------=
