
     Program PWSCF v.7.5 starts on 25Jul2026 at 21:14: 4 

     This program is part of the open-source Quantum ESPRESSO suite
     for quantum simulation of materials; please cite
         "P. Giannozzi et al., J. Phys.:Condens. Matter 21 395502 (2009);
         "P. Giannozzi et al., J. Phys.:Condens. Matter 29 465901 (2017);
         "P. Giannozzi et al., J. Chem. Phys. 152 154105 (2020);
          URL http://www.quantum-espresso.org", 
     in publications or presentations arising from this work. More details at
     http://www.quantum-espresso.org/quote

     Parallel version (MPI & OpenMP), running on      10 processor cores
     Number of MPI processes:                10
     Threads/MPI process:                     1

     MPI processes distributed on     1 nodes
     212904 MiB available memory on the printing compute node when the environment starts

     Reading input from espresso.pwi
Warning: card &CELL ignored
Warning: card &FCP ignored
Warning: card &RISM ignored

     Current dimensions of program PWSCF are:
     Max number of different atomic species (ntypx) = 10
     Max number of k-points (npk) =  40000
     Max angular momentum in pseudopotentials (lmaxx) =  4
     file C.pbe-n-kjpaw_psl.1.0.0.UPF: wavefunction(s)  2S 2P renormalized
     Found identity + (  0.5000 -0.5000  0.0000) symmetry
     This is a supercell, fractional translations are disabled
     Message from routine setup:
     using ibrav=0 with symmetry is DISCOURAGED, use correct ibrav instead

     R & G space division:  proc/nbgrp/npool/nimage =      10
     Subspace diagonalization in iterative solution of the eigenvalue problem:
     a serial algorithm will be used


     Parallelization info
     --------------------
     sticks:   dense  smooth     PW     G-vecs:    dense   smooth      PW
     Min         118     118     33                22132    22132    3277
     Max         120     120     34                22140    22140    3291
     Sum        1185    1185    333               221347   221347   32857

     Using Slab Decomposition



     bravais-lattice index     =            0
     lattice parameter (alat)  =       6.7875  a.u.
     unit-cell volume          =    2288.4037 (a.u.)^3
     number of atoms/cell      =           16
     number of atomic types    =            1
     number of electrons       =        64.00
     number of Kohn-Sham states=           32
     kinetic-energy cutoff     =      80.0000  Ry
     charge density cutoff     =     320.0000  Ry
     scf convergence threshold =      1.0E-06
     mixing beta               =       0.7000
     number of iterations used =            8  plain     mixing
     Exchange-correlation= SLA  PW   PBX  PBC
                           (   1   4   3   4   0   0   0)

     celldm(1)=   6.787470  celldm(2)=   0.000000  celldm(3)=   0.000000
     celldm(4)=   0.000000  celldm(5)=   0.000000  celldm(6)=   0.000000

     crystal axes: (cart. coord. in units of alat)
               a(1) = (   1.000000   0.000000   0.000000 )  
               a(2) = (  -0.000000   1.000000   0.000000 )  
               a(3) = (   0.000000  -0.000000   7.318279 )  

     reciprocal axes: (cart. coord. in units 2 pi/alat)
               b(1) = (  1.000000  0.000000  0.000000 )  
               b(2) = ( -0.000000  1.000000  0.000000 )  
               b(3) = (  0.000000 -0.000000  0.136644 )  


     PseudoPot. # 1 for C  read from file:
     /lustre07/scratch/tanay11/siesta-qe-notebook-benchmark/pseudo_espresso/C.pbe-n-kjpaw_psl.1.0.0.UPF
     MD5 check sum: 5d2aebdfa2cae82b50a7e79e9516da0f
     Pseudo is Projector augmented-wave + core cor, Zval =  4.0
     Generated using "atomic" code by A. Dal Corso  v.5.1
     Shape of augmentation charge: PSQ
     Using radial grid of 1073 points,  4 beta functions with: 
                l(1) =   0
                l(2) =   0
                l(3) =   1
                l(4) =   1
     Q(r) pseudized with 0 coefficients 


     atomic species   valence    mass     pseudopotential
     C                 4.00    12.01100     C ( 1.00)

      4 Sym. Ops. (no inversion) found



   Cartesian axes

     site n.     atom                  positions (alat units)
         1        C      tau(   1) = (   0.0000000  -0.0000000   2.8129873  )
         2        C      tau(   2) = (   0.2500021   0.2500021   3.0301898  )
         3        C      tau(   3) = (   0.5000000   0.5000000   2.8129953  )
         4        C      tau(   4) = (   0.7499979   0.7499979   3.0301898  )
         5        C      tau(   5) = (   0.0000000   0.5000000   3.2887637  )
         6        C      tau(   6) = (   0.2499998   0.7500002   3.5335044  )
         7        C      tau(   7) = (   0.5000000   0.0000000   3.2887637  )
         8        C      tau(   8) = (   0.7500002   0.2499998   3.5335044  )
         9        C      tau(   9) = (  -0.0000000  -0.0000000   3.7845928  )
        10        C      tau(  10) = (   0.2500000   0.2500000   4.0293666  )
        11        C      tau(  11) = (   0.5000000   0.5000000   3.7845930  )
        12        C      tau(  12) = (   0.7500000   0.7500000   4.0293666  )
        13        C      tau(  13) = (   0.0000000   0.5000000   4.2882132  )
        14        C      tau(  14) = (   0.2499986   0.7500014   4.5054927  )
        15        C      tau(  15) = (   0.5000000   0.0000000   4.2882132  )
        16        C      tau(  16) = (   0.7500014   0.2499986   4.5054927  )

     number of k points=     9
                       cart. coord. in units 2pi/alat
        k(    1) = (   0.0000000   0.0000000   0.0000000), wk =   0.0800000
        k(    2) = (   0.0000000   0.2000000   0.0000000), wk =   0.3200000
        k(    3) = (   0.0000000   0.4000000   0.0000000), wk =   0.3200000
        k(    4) = (   0.2000000   0.2000000   0.0000000), wk =   0.1600000
        k(    5) = (   0.2000000   0.4000000   0.0000000), wk =   0.3200000
        k(    6) = (   0.4000000   0.4000000   0.0000000), wk =   0.1600000
        k(    7) = (   0.2000000  -0.2000000   0.0000000), wk =   0.1600000
        k(    8) = (   0.4000000  -0.2000000   0.0000000), wk =   0.3200000
        k(    9) = (   0.4000000  -0.4000000   0.0000000), wk =   0.1600000

     Dense  grid:   221347 G-vectors     FFT dimensions: (  40,  40, 288)

     Estimated max dynamical RAM per process >      61.95 MB

     Estimated total dynamical RAM >     619.45 MB

     Check: negative core charge=   -0.000006

     Initial potential from superposition of free atoms

     starting charge      63.9993, renormalised to      64.0000

     negative rho (up, down):  1.511E-04 0.000E+00
     Starting wfcs are   64 randomized atomic wfcs
     Checking if some PAW data can be deallocated... 

     total cpu time spent up to now is        1.7 secs

     per-process dynamical memory:   116.4 Mb

     Self-consistent Calculation

     iteration #  1     ecut=    80.00 Ry     beta= 0.70
     Davidson diagonalization with overlap
     ethr =  1.00E-02,  avg # of iterations =  2.0

     negative rho (up, down):  4.342E-04 0.000E+00

     total cpu time spent up to now is        3.4 secs

     total energy              =    -293.86087320 Ry
     estimated scf accuracy    <       0.76689109 Ry

     iteration #  2     ecut=    80.00 Ry     beta= 0.70
     Davidson diagonalization with overlap
     ethr =  1.20E-03,  avg # of iterations =  2.7

     negative rho (up, down):  5.320E-04 0.000E+00

     total cpu time spent up to now is        5.0 secs

     total energy              =    -293.90550603 Ry
     estimated scf accuracy    <       0.09849498 Ry

     iteration #  3     ecut=    80.00 Ry     beta= 0.70
     Davidson diagonalization with overlap
     ethr =  1.54E-04,  avg # of iterations =  6.1

     negative rho (up, down):  5.627E-04 0.000E+00

     total cpu time spent up to now is        7.3 secs

     total energy              =    -293.89547484 Ry
     estimated scf accuracy    <       0.23208249 Ry

     iteration #  4     ecut=    80.00 Ry     beta= 0.70
     Davidson diagonalization with overlap
     ethr =  1.54E-04,  avg # of iterations =  5.9

     negative rho (up, down):  5.703E-04 0.000E+00

     total cpu time spent up to now is        9.4 secs

     total energy              =    -293.94040179 Ry
     estimated scf accuracy    <       0.02111313 Ry

     iteration #  5     ecut=    80.00 Ry     beta= 0.70
     Davidson diagonalization with overlap
     ethr =  3.30E-05,  avg # of iterations =  8.6

     negative rho (up, down):  5.750E-04 0.000E+00

     total cpu time spent up to now is       11.6 secs

     total energy              =    -293.92466746 Ry
     estimated scf accuracy    <       1.09643366 Ry

     iteration #  6     ecut=    80.00 Ry     beta= 0.70
     Davidson diagonalization with overlap
     ethr =  3.30E-05,  avg # of iterations =  7.9

     negative rho (up, down):  5.813E-04 0.000E+00

     total cpu time spent up to now is       13.7 secs

     total energy              =    -293.94579318 Ry
     estimated scf accuracy    <       0.11866637 Ry

     iteration #  7     ecut=    80.00 Ry     beta= 0.70
     Davidson diagonalization with overlap
     ethr =  3.30E-05,  avg # of iterations =  3.3

     negative rho (up, down):  5.851E-04 0.000E+00

     total cpu time spent up to now is       15.1 secs

     total energy              =    -293.94712019 Ry
     estimated scf accuracy    <       0.02357905 Ry

     iteration #  8     ecut=    80.00 Ry     beta= 0.70
     Davidson diagonalization with overlap
     ethr =  3.30E-05,  avg # of iterations =  2.1

     negative rho (up, down):  5.877E-04 0.000E+00

     total cpu time spent up to now is       16.4 secs

     total energy              =    -293.94847897 Ry
     estimated scf accuracy    <       0.03568603 Ry

     iteration #  9     ecut=    80.00 Ry     beta= 0.70
     Davidson diagonalization with overlap
     ethr =  3.30E-05,  avg # of iterations =  2.0

     negative rho (up, down):  5.890E-04 0.000E+00

     total cpu time spent up to now is       17.7 secs

     total energy              =    -293.94797970 Ry
     estimated scf accuracy    <       0.07325332 Ry

     iteration # 10     ecut=    80.00 Ry     beta= 0.70
     Davidson diagonalization with overlap
     ethr =  3.30E-05,  avg # of iterations =  1.0

     negative rho (up, down):  5.907E-04 0.000E+00

     total cpu time spent up to now is       18.9 secs

     total energy              =    -293.94544282 Ry
     estimated scf accuracy    <       0.06996495 Ry

     iteration # 11     ecut=    80.00 Ry     beta= 0.70
     Davidson diagonalization with overlap
     ethr =  3.30E-05,  avg # of iterations =  2.9

     negative rho (up, down):  5.907E-04 0.000E+00

     total cpu time spent up to now is       20.3 secs

     total energy              =    -293.94851199 Ry
     estimated scf accuracy    <       0.07879744 Ry

     iteration # 12     ecut=    80.00 Ry     beta= 0.70
     Davidson diagonalization with overlap
     ethr =  3.30E-05,  avg # of iterations =  1.0

     negative rho (up, down):  5.897E-04 0.000E+00

     total cpu time spent up to now is       21.5 secs

     total energy              =    -293.94737576 Ry
     estimated scf accuracy    <       0.07450696 Ry

     iteration # 13     ecut=    80.00 Ry     beta= 0.70
     Davidson diagonalization with overlap
     ethr =  3.30E-05,  avg # of iterations =  1.2

     negative rho (up, down):  5.909E-04 0.000E+00

     total cpu time spent up to now is       22.7 secs

     total energy              =    -293.94753526 Ry
     estimated scf accuracy    <       0.06809007 Ry

     iteration # 14     ecut=    80.00 Ry     beta= 0.70
     Davidson diagonalization with overlap
     ethr =  3.30E-05,  avg # of iterations =  1.1

     negative rho (up, down):  5.910E-04 0.000E+00

     total cpu time spent up to now is       23.9 secs

     total energy              =    -293.94605997 Ry
     estimated scf accuracy    <       0.06627239 Ry

     iteration # 15     ecut=    80.00 Ry     beta= 0.70
     Davidson diagonalization with overlap
     ethr =  3.30E-05,  avg # of iterations =  2.8

     negative rho (up, down):  5.910E-04 0.000E+00

     total cpu time spent up to now is       25.3 secs

     total energy              =    -293.94971851 Ry
     estimated scf accuracy    <       0.10353911 Ry

     iteration # 16     ecut=    80.00 Ry     beta= 0.70
     Davidson diagonalization with overlap
     ethr =  3.30E-05,  avg # of iterations =  1.0

     negative rho (up, down):  5.905E-04 0.000E+00

     total cpu time spent up to now is       26.5 secs

     total energy              =    -293.94905924 Ry
     estimated scf accuracy    <       0.10440396 Ry

     iteration # 17     ecut=    80.00 Ry     beta= 0.70
     Davidson diagonalization with overlap
     ethr =  3.30E-05,  avg # of iterations =  1.0

     negative rho (up, down):  5.903E-04 0.000E+00

     total cpu time spent up to now is       27.7 secs

     total energy              =    -293.94900032 Ry
     estimated scf accuracy    <       0.10280847 Ry

     iteration # 18     ecut=    80.00 Ry     beta= 0.70
     Davidson diagonalization with overlap
     ethr =  3.30E-05,  avg # of iterations =  1.0

     negative rho (up, down):  5.905E-04 0.000E+00

     total cpu time spent up to now is       28.9 secs

     total energy              =    -293.94899696 Ry
     estimated scf accuracy    <       0.10213080 Ry

     iteration # 19     ecut=    80.00 Ry     beta= 0.70
     Davidson diagonalization with overlap
     ethr =  3.30E-05,  avg # of iterations =  1.0

     negative rho (up, down):  5.903E-04 0.000E+00

     total cpu time spent up to now is       30.2 secs

     total energy              =    -293.94821608 Ry
     estimated scf accuracy    <       0.10176583 Ry

     iteration # 20     ecut=    80.00 Ry     beta= 0.70
     Davidson diagonalization with overlap
     ethr =  3.30E-05,  avg # of iterations =  1.0

     negative rho (up, down):  5.902E-04 0.000E+00

     total cpu time spent up to now is       31.4 secs

     total energy              =    -293.94726539 Ry
     estimated scf accuracy    <       0.09651168 Ry

     iteration # 21     ecut=    80.00 Ry     beta= 0.70
     Davidson diagonalization with overlap
     ethr =  3.30E-05,  avg # of iterations =  1.0

     negative rho (up, down):  5.902E-04 0.000E+00

     total cpu time spent up to now is       32.6 secs

     total energy              =    -293.94818258 Ry
     estimated scf accuracy    <       0.09022669 Ry

     iteration # 22     ecut=    80.00 Ry     beta= 0.70
     Davidson diagonalization with overlap
     ethr =  3.30E-05,  avg # of iterations =  1.0

     negative rho (up, down):  5.906E-04 0.000E+00

     total cpu time spent up to now is       33.8 secs

     total energy              =    -293.94891922 Ry
     estimated scf accuracy    <       0.09177729 Ry

     iteration # 23     ecut=    80.00 Ry     beta= 0.70
     Davidson diagonalization with overlap
     ethr =  3.30E-05,  avg # of iterations =  1.0

     negative rho (up, down):  5.801E-04 0.000E+00

     total cpu time spent up to now is       35.0 secs

     total energy              =    -293.92599764 Ry
     estimated scf accuracy    <       0.09473032 Ry

     iteration # 24     ecut=    80.00 Ry     beta= 0.70
     Davidson diagonalization with overlap
     ethr =  3.30E-05,  avg # of iterations = 10.8

     negative rho (up, down):  5.866E-04 0.000E+00

     total cpu time spent up to now is       37.4 secs

     total energy              =    -293.96342108 Ry
     estimated scf accuracy    <       3.49327486 Ry

     iteration # 25     ecut=    80.00 Ry     beta= 0.70
     Davidson diagonalization with overlap
     ethr =  3.30E-05,  avg # of iterations =  6.6

     negative rho (up, down):  5.897E-04 0.000E+00

     total cpu time spent up to now is       39.1 secs

     total energy              =    -293.95253255 Ry
     estimated scf accuracy    <       1.26679251 Ry

     iteration # 26     ecut=    80.00 Ry     beta= 0.70
     Davidson diagonalization with overlap
     ethr =  3.30E-05,  avg # of iterations =  5.9

     negative rho (up, down):  5.898E-04 0.000E+00

     total cpu time spent up to now is       40.7 secs

     total energy              =    -293.95058055 Ry
     estimated scf accuracy    <       0.62189829 Ry

     iteration # 27     ecut=    80.00 Ry     beta= 0.70
     Davidson diagonalization with overlap
     ethr =  3.30E-05,  avg # of iterations =  2.4

     negative rho (up, down):  5.891E-04 0.000E+00

     total cpu time spent up to now is       42.0 secs

     total energy              =    -293.94990256 Ry
     estimated scf accuracy    <       0.55935575 Ry

     iteration # 28     ecut=    80.00 Ry     beta= 0.70
     Davidson diagonalization with overlap
     ethr =  3.30E-05,  avg # of iterations =  1.0

     negative rho (up, down):  5.885E-04 0.000E+00

     total cpu time spent up to now is       43.2 secs

     total energy              =    -293.94790532 Ry
     estimated scf accuracy    <       0.54609686 Ry

     iteration # 29     ecut=    80.00 Ry     beta= 0.70
     Davidson diagonalization with overlap
     ethr =  3.30E-05,  avg # of iterations =  1.0

     negative rho (up, down):  5.907E-04 0.000E+00

     total cpu time spent up to now is       44.4 secs

     total energy              =    -293.94284851 Ry
     estimated scf accuracy    <       0.52672848 Ry

     iteration # 30     ecut=    80.00 Ry     beta= 0.70
     Davidson diagonalization with overlap
     ethr =  3.30E-05,  avg # of iterations =  4.3

     negative rho (up, down):  5.909E-04 0.000E+00

     total cpu time spent up to now is       45.9 secs

     total energy              =    -293.94600601 Ry
     estimated scf accuracy    <       0.13453382 Ry

     iteration # 31     ecut=    80.00 Ry     beta= 0.70
     Davidson diagonalization with overlap
     ethr =  3.30E-05,  avg # of iterations =  2.3

     negative rho (up, down):  5.904E-04 0.000E+00

     total cpu time spent up to now is       47.2 secs

     total energy              =    -293.94632922 Ry
     estimated scf accuracy    <       0.11143690 Ry

     iteration # 32     ecut=    80.00 Ry     beta= 0.70
     Davidson diagonalization with overlap
     ethr =  3.30E-05,  avg # of iterations =  1.0

     negative rho (up, down):  5.901E-04 0.000E+00

     total cpu time spent up to now is       48.4 secs

     total energy              =    -293.93003502 Ry
     estimated scf accuracy    <       0.10762077 Ry

     iteration # 33     ecut=    80.00 Ry     beta= 0.70
     Davidson diagonalization with overlap
     ethr =  3.30E-05,  avg # of iterations =  8.8

     negative rho (up, down):  5.899E-04 0.000E+00

     total cpu time spent up to now is       50.6 secs

     total energy              =    -293.92506985 Ry
     estimated scf accuracy    <       1.35276343 Ry

     iteration # 34     ecut=    80.00 Ry     beta= 0.70
     Davidson diagonalization with overlap
     ethr =  3.30E-05,  avg # of iterations =  8.1

     negative rho (up, down):  5.906E-04 0.000E+00

     total cpu time spent up to now is       52.6 secs

     total energy              =    -293.94812266 Ry
     estimated scf accuracy    <       0.09859065 Ry

     iteration # 35     ecut=    80.00 Ry     beta= 0.70
     Davidson diagonalization with overlap
     ethr =  3.30E-05,  avg # of iterations =  1.0

     negative rho (up, down):  5.903E-04 0.000E+00

     total cpu time spent up to now is       53.8 secs

     total energy              =    -293.94879163 Ry
     estimated scf accuracy    <       0.09529647 Ry

     iteration # 36     ecut=    80.00 Ry     beta= 0.70
     Davidson diagonalization with overlap
     ethr =  3.30E-05,  avg # of iterations =  1.0

     negative rho (up, down):  5.902E-04 0.000E+00

     total cpu time spent up to now is       55.0 secs

     total energy              =    -293.94787012 Ry
     estimated scf accuracy    <       0.09690137 Ry

     iteration # 37     ecut=    80.00 Ry     beta= 0.70
     Davidson diagonalization with overlap
     ethr =  3.30E-05,  avg # of iterations =  1.0

     negative rho (up, down):  5.902E-04 0.000E+00

     total cpu time spent up to now is       56.2 secs

     total energy              =    -293.94754643 Ry
     estimated scf accuracy    <       0.09346947 Ry

     iteration # 38     ecut=    80.00 Ry     beta= 0.70
     Davidson diagonalization with overlap
     ethr =  3.30E-05,  avg # of iterations =  1.0

     negative rho (up, down):  5.902E-04 0.000E+00

     total cpu time spent up to now is       57.4 secs

     total energy              =    -293.94886702 Ry
     estimated scf accuracy    <       0.09147215 Ry

     iteration # 39     ecut=    80.00 Ry     beta= 0.70
     Davidson diagonalization with overlap
     ethr =  3.30E-05,  avg # of iterations =  1.1

     negative rho (up, down):  5.902E-04 0.000E+00

     total cpu time spent up to now is       58.7 secs

     total energy              =    -293.94893525 Ry
     estimated scf accuracy    <       0.09883354 Ry

     iteration # 40     ecut=    80.00 Ry     beta= 0.70
     Davidson diagonalization with overlap
     ethr =  3.30E-05,  avg # of iterations =  1.0

     negative rho (up, down):  5.901E-04 0.000E+00

     total cpu time spent up to now is       59.9 secs

     total energy              =    -293.94880374 Ry
     estimated scf accuracy    <       0.09962641 Ry

     iteration # 41     ecut=    80.00 Ry     beta= 0.70
     Davidson diagonalization with overlap
     ethr =  3.30E-05,  avg # of iterations =  1.0

     negative rho (up, down):  5.905E-04 0.000E+00

     total cpu time spent up to now is       61.1 secs

     total energy              =    -293.94206837 Ry
     estimated scf accuracy    <       0.09952291 Ry

     iteration # 42     ecut=    80.00 Ry     beta= 0.70
     Davidson diagonalization with overlap
     ethr =  3.30E-05,  avg # of iterations =  7.9

     negative rho (up, down):  5.911E-04 0.000E+00

     total cpu time spent up to now is       63.2 secs

     total energy              =    -293.95241677 Ry
     estimated scf accuracy    <       0.20800958 Ry

     iteration # 43     ecut=    80.00 Ry     beta= 0.70
     Davidson diagonalization with overlap
     ethr =  3.30E-05,  avg # of iterations =  4.9

     negative rho (up, down):  5.905E-04 0.000E+00

     total cpu time spent up to now is       64.7 secs

     total energy              =    -293.95080469 Ry
     estimated scf accuracy    <       0.15394111 Ry

     iteration # 44     ecut=    80.00 Ry     beta= 0.70
     Davidson diagonalization with overlap
     ethr =  3.30E-05,  avg # of iterations =  1.3

     negative rho (up, down):  5.912E-04 0.000E+00

     total cpu time spent up to now is       65.9 secs

     total energy              =    -293.94850928 Ry
     estimated scf accuracy    <       0.13944042 Ry

     iteration # 45     ecut=    80.00 Ry     beta= 0.70
     Davidson diagonalization with overlap
     ethr =  3.30E-05,  avg # of iterations =  3.2

     negative rho (up, down):  5.908E-04 0.000E+00

     total cpu time spent up to now is       67.3 secs

     total energy              =    -293.95026069 Ry
     estimated scf accuracy    <       0.05023300 Ry

     iteration # 46     ecut=    80.00 Ry     beta= 0.70
     Davidson diagonalization with overlap
     ethr =  3.30E-05,  avg # of iterations =  3.0

     negative rho (up, down):  5.897E-04 0.000E+00

     total cpu time spent up to now is       68.6 secs

     total energy              =    -293.95117664 Ry
     estimated scf accuracy    <       0.09298825 Ry

     iteration # 47     ecut=    80.00 Ry     beta= 0.70
     Davidson diagonalization with overlap
     ethr =  3.30E-05,  avg # of iterations =  2.4

     negative rho (up, down):  5.896E-04 0.000E+00

     total cpu time spent up to now is       69.9 secs

     total energy              =    -293.94832483 Ry
     estimated scf accuracy    <       0.09279896 Ry

     iteration # 48     ecut=    80.00 Ry     beta= 0.70
     Davidson diagonalization with overlap
     ethr =  3.30E-05,  avg # of iterations =  4.4

     negative rho (up, down):  5.902E-04 0.000E+00

     total cpu time spent up to now is       71.4 secs

     total energy              =    -293.94769214 Ry
     estimated scf accuracy    <       0.07474215 Ry

     iteration # 49     ecut=    80.00 Ry     beta= 0.70
     Davidson diagonalization with overlap
     ethr =  3.30E-05,  avg # of iterations =  1.1

     negative rho (up, down):  5.905E-04 0.000E+00

     total cpu time spent up to now is       72.6 secs

     total energy              =    -293.94647855 Ry
     estimated scf accuracy    <       0.06798586 Ry

     iteration # 50     ecut=    80.00 Ry     beta= 0.70
     Davidson diagonalization with overlap
     ethr =  3.30E-05,  avg # of iterations =  1.8

     negative rho (up, down):  5.918E-04 0.000E+00

     total cpu time spent up to now is       73.9 secs

     total energy              =    -293.94105377 Ry
     estimated scf accuracy    <       0.05576975 Ry

     iteration # 51     ecut=    80.00 Ry     beta= 0.70
     Davidson diagonalization with overlap
     ethr =  3.30E-05,  avg # of iterations =  5.6

     negative rho (up, down):  5.910E-04 0.000E+00

     total cpu time spent up to now is       75.5 secs

     total energy              =    -293.95216043 Ry
     estimated scf accuracy    <       0.29800664 Ry

     iteration # 52     ecut=    80.00 Ry     beta= 0.70
     Davidson diagonalization with overlap
     ethr =  3.30E-05,  avg # of iterations =  2.0

     negative rho (up, down):  5.910E-04 0.000E+00

     total cpu time spent up to now is       76.8 secs

     total energy              =    -293.95236804 Ry
     estimated scf accuracy    <       0.26209951 Ry

     iteration # 53     ecut=    80.00 Ry     beta= 0.70
     Davidson diagonalization with overlap
     ethr =  3.30E-05,  avg # of iterations =  1.0

     negative rho (up, down):  5.902E-04 0.000E+00

     total cpu time spent up to now is       78.0 secs

     total energy              =    -293.94999263 Ry
     estimated scf accuracy    <       0.25916063 Ry

     iteration # 54     ecut=    80.00 Ry     beta= 0.70
     Davidson diagonalization with overlap
     ethr =  3.30E-05,  avg # of iterations =  2.0

     negative rho (up, down):  5.900E-04 0.000E+00

     total cpu time spent up to now is       79.3 secs

     total energy              =    -293.94844026 Ry
     estimated scf accuracy    <       0.18088905 Ry

     iteration # 55     ecut=    80.00 Ry     beta= 0.70
     Davidson diagonalization with overlap
     ethr =  3.30E-05,  avg # of iterations =  1.6

     negative rho (up, down):  5.900E-04 0.000E+00

     total cpu time spent up to now is       80.6 secs

     total energy              =    -293.94796316 Ry
     estimated scf accuracy    <       0.16665170 Ry

     iteration # 56     ecut=    80.00 Ry     beta= 0.70
     Davidson diagonalization with overlap
     ethr =  3.30E-05,  avg # of iterations =  1.0

     negative rho (up, down):  5.901E-04 0.000E+00

     total cpu time spent up to now is       81.8 secs

     total energy              =    -293.94747093 Ry
     estimated scf accuracy    <       0.16198109 Ry

     iteration # 57     ecut=    80.00 Ry     beta= 0.70
     Davidson diagonalization with overlap
     ethr =  3.30E-05,  avg # of iterations =  1.6

     negative rho (up, down):  5.899E-04 0.000E+00

     total cpu time spent up to now is       83.0 secs

     total energy              =    -293.94711928 Ry
     estimated scf accuracy    <       0.14707488 Ry

     iteration # 58     ecut=    80.00 Ry     beta= 0.70
     Davidson diagonalization with overlap
     ethr =  3.30E-05,  avg # of iterations =  1.0

     negative rho (up, down):  5.899E-04 0.000E+00

     total cpu time spent up to now is       84.3 secs

     total energy              =    -293.94583670 Ry
     estimated scf accuracy    <       0.14305934 Ry

     iteration # 59     ecut=    80.00 Ry     beta= 0.70
     Davidson diagonalization with overlap
     ethr =  3.30E-05,  avg # of iterations =  3.1

     negative rho (up, down):  5.907E-04 0.000E+00

     total cpu time spent up to now is       85.6 secs

     total energy              =    -293.94813282 Ry
     estimated scf accuracy    <       0.02014351 Ry

     iteration # 60     ecut=    80.00 Ry     beta= 0.70
     Davidson diagonalization with overlap
     ethr =  3.15E-05,  avg # of iterations =  1.0

     negative rho (up, down):  5.911E-04 0.000E+00

     total cpu time spent up to now is       86.8 secs

     total energy              =    -293.94791920 Ry
     estimated scf accuracy    <       0.01854373 Ry

     iteration # 61     ecut=    80.00 Ry     beta= 0.70
     Davidson diagonalization with overlap
     ethr =  2.90E-05,  avg # of iterations =  1.0

     negative rho (up, down):  5.911E-04 0.000E+00

     total cpu time spent up to now is       88.0 secs

     total energy              =    -293.94794185 Ry
     estimated scf accuracy    <       0.01719832 Ry

     iteration # 62     ecut=    80.00 Ry     beta= 0.70
     Davidson diagonalization with overlap
     ethr =  2.69E-05,  avg # of iterations =  1.0

     negative rho (up, down):  5.910E-04 0.000E+00

     total cpu time spent up to now is       89.3 secs

     total energy              =    -293.94772699 Ry
     estimated scf accuracy    <       0.01683740 Ry

     iteration # 63     ecut=    80.00 Ry     beta= 0.70
     Davidson diagonalization with overlap
     ethr =  2.63E-05,  avg # of iterations =  1.1

     negative rho (up, down):  5.904E-04 0.000E+00

     total cpu time spent up to now is       90.5 secs

     total energy              =    -293.94771887 Ry
     estimated scf accuracy    <       0.01474052 Ry

     iteration # 64     ecut=    80.00 Ry     beta= 0.70
     Davidson diagonalization with overlap
     ethr =  2.30E-05,  avg # of iterations =  2.0

     negative rho (up, down):  5.903E-04 0.000E+00

     total cpu time spent up to now is       91.8 secs

     total energy              =    -293.94875242 Ry
     estimated scf accuracy    <       0.03010834 Ry

     iteration # 65     ecut=    80.00 Ry     beta= 0.70
     Davidson diagonalization with overlap
     ethr =  2.30E-05,  avg # of iterations =  1.0

     negative rho (up, down):  5.902E-04 0.000E+00

     total cpu time spent up to now is       93.0 secs

     total energy              =    -293.94878464 Ry
     estimated scf accuracy    <       0.03099119 Ry

     iteration # 66     ecut=    80.00 Ry     beta= 0.70
     Davidson diagonalization with overlap
     ethr =  2.30E-05,  avg # of iterations =  1.0

     negative rho (up, down):  5.901E-04 0.000E+00

     total cpu time spent up to now is       94.2 secs

     total energy              =    -293.94876080 Ry
     estimated scf accuracy    <       0.03159623 Ry

     iteration # 67     ecut=    80.00 Ry     beta= 0.70
     Davidson diagonalization with overlap
     ethr =  2.30E-05,  avg # of iterations =  1.0

     negative rho (up, down):  5.897E-04 0.000E+00

     total cpu time spent up to now is       95.4 secs

     total energy              =    -293.94893033 Ry
     estimated scf accuracy    <       0.03213204 Ry

     iteration # 68     ecut=    80.00 Ry     beta= 0.70
     Davidson diagonalization with overlap
     ethr =  2.30E-05,  avg # of iterations =  1.9

     negative rho (up, down):  5.897E-04 0.000E+00

     total cpu time spent up to now is       96.7 secs

     total energy              =    -293.94956368 Ry
     estimated scf accuracy    <       0.06854999 Ry

     iteration # 69     ecut=    80.00 Ry     beta= 0.70
     Davidson diagonalization with overlap
     ethr =  2.30E-05,  avg # of iterations =  1.1

     negative rho (up, down):  5.899E-04 0.000E+00

     total cpu time spent up to now is       97.9 secs

     total energy              =    -293.94965960 Ry
     estimated scf accuracy    <       0.07210575 Ry

     iteration # 70     ecut=    80.00 Ry     beta= 0.70
     Davidson diagonalization with overlap
     ethr =  2.30E-05,  avg # of iterations =  1.0

     negative rho (up, down):  5.901E-04 0.000E+00

     total cpu time spent up to now is       99.1 secs

     total energy              =    -293.94970071 Ry
     estimated scf accuracy    <       0.07334696 Ry

     iteration # 71     ecut=    80.00 Ry     beta= 0.70
     Davidson diagonalization with overlap
     ethr =  2.30E-05,  avg # of iterations =  1.0

     negative rho (up, down):  5.903E-04 0.000E+00

     total cpu time spent up to now is      100.3 secs

     total energy              =    -293.94966943 Ry
     estimated scf accuracy    <       0.07410307 Ry

     iteration # 72     ecut=    80.00 Ry     beta= 0.70
     Davidson diagonalization with overlap
     ethr =  2.30E-05,  avg # of iterations =  1.0

     negative rho (up, down):  5.886E-04 0.000E+00

     total cpu time spent up to now is      101.6 secs

     total energy              =    -293.94093053 Ry
     estimated scf accuracy    <       0.07487867 Ry

     iteration # 73     ecut=    80.00 Ry     beta= 0.70
     Davidson diagonalization with overlap
     ethr =  2.30E-05,  avg # of iterations =  5.6

     negative rho (up, down):  5.901E-04 0.000E+00

     total cpu time spent up to now is      103.3 secs

     total energy              =    -293.95152192 Ry
     estimated scf accuracy    <       0.30347286 Ry

     iteration # 74     ecut=    80.00 Ry     beta= 0.70
     Davidson diagonalization with overlap
     ethr =  2.30E-05,  avg # of iterations =  3.2

     negative rho (up, down):  5.902E-04 0.000E+00

     total cpu time spent up to now is      104.7 secs

     total energy              =    -293.94828588 Ry
     estimated scf accuracy    <       0.21436794 Ry

     iteration # 75     ecut=    80.00 Ry     beta= 0.70
     Davidson diagonalization with overlap
     ethr =  2.30E-05,  avg # of iterations =  2.7

     negative rho (up, down):  5.902E-04 0.000E+00

     total cpu time spent up to now is      106.0 secs

     total energy              =    -293.94658377 Ry
     estimated scf accuracy    <       0.13637883 Ry

     iteration # 76     ecut=    80.00 Ry     beta= 0.70
     Davidson diagonalization with overlap
     ethr =  2.30E-05,  avg # of iterations =  2.3

     negative rho (up, down):  5.902E-04 0.000E+00

     total cpu time spent up to now is      107.3 secs

     total energy              =    -293.94688871 Ry
     estimated scf accuracy    <       0.08285504 Ry

     iteration # 77     ecut=    80.00 Ry     beta= 0.70
     Davidson diagonalization with overlap
     ethr =  2.30E-05,  avg # of iterations =  1.0

     negative rho (up, down):  5.901E-04 0.000E+00

     total cpu time spent up to now is      108.5 secs

     total energy              =    -293.94753792 Ry
     estimated scf accuracy    <       0.08052740 Ry

     iteration # 78     ecut=    80.00 Ry     beta= 0.70
     Davidson diagonalization with overlap
     ethr =  2.30E-05,  avg # of iterations =  1.0

     negative rho (up, down):  5.902E-04 0.000E+00

     total cpu time spent up to now is      109.7 secs

     total energy              =    -293.94709402 Ry
     estimated scf accuracy    <       0.07988819 Ry

     iteration # 79     ecut=    80.00 Ry     beta= 0.70
     Davidson diagonalization with overlap
     ethr =  2.30E-05,  avg # of iterations =  1.4

     negative rho (up, down):  5.902E-04 0.000E+00

     total cpu time spent up to now is      111.0 secs

     total energy              =    -293.94661459 Ry
     estimated scf accuracy    <       0.07518338 Ry

     iteration # 80     ecut=    80.00 Ry     beta= 0.70
     Davidson diagonalization with overlap
     ethr =  2.30E-05,  avg # of iterations =  2.1

     negative rho (up, down):  5.902E-04 0.000E+00

     total cpu time spent up to now is      112.3 secs

     total energy              =    -293.94853539 Ry
     estimated scf accuracy    <       0.01196291 Ry

     iteration # 81     ecut=    80.00 Ry     beta= 0.70
     Davidson diagonalization with overlap
     ethr =  1.87E-05,  avg # of iterations =  1.0

     negative rho (up, down):  5.905E-04 0.000E+00

     total cpu time spent up to now is      113.5 secs

     total energy              =    -293.94874630 Ry
     estimated scf accuracy    <       0.01249700 Ry

     iteration # 82     ecut=    80.00 Ry     beta= 0.70
     Davidson diagonalization with overlap
     ethr =  1.87E-05,  avg # of iterations =  1.8

     negative rho (up, down):  5.904E-04 0.000E+00

     total cpu time spent up to now is      114.8 secs

     total energy              =    -293.94850757 Ry
     estimated scf accuracy    <       0.01647021 Ry

     iteration # 83     ecut=    80.00 Ry     beta= 0.70
     Davidson diagonalization with overlap
     ethr =  1.87E-05,  avg # of iterations =  1.0

     negative rho (up, down):  5.903E-04 0.000E+00

     total cpu time spent up to now is      116.0 secs

     total energy              =    -293.94809514 Ry
     estimated scf accuracy    <       0.01592471 Ry

     iteration # 84     ecut=    80.00 Ry     beta= 0.70
     Davidson diagonalization with overlap
     ethr =  1.87E-05,  avg # of iterations =  1.1

     negative rho (up, down):  5.904E-04 0.000E+00

     total cpu time spent up to now is      117.2 secs

     total energy              =    -293.94881873 Ry
     estimated scf accuracy    <       0.01330757 Ry

     iteration # 85     ecut=    80.00 Ry     beta= 0.70
     Davidson diagonalization with overlap
     ethr =  1.87E-05,  avg # of iterations =  1.0

     negative rho (up, down):  5.904E-04 0.000E+00

     total cpu time spent up to now is      118.4 secs

     total energy              =    -293.94880536 Ry
     estimated scf accuracy    <       0.01652195 Ry

     iteration # 86     ecut=    80.00 Ry     beta= 0.70
     Davidson diagonalization with overlap
     ethr =  1.87E-05,  avg # of iterations =  1.0

     negative rho (up, down):  5.903E-04 0.000E+00

     total cpu time spent up to now is      119.6 secs

     total energy              =    -293.94859912 Ry
     estimated scf accuracy    <       0.01702292 Ry

     iteration # 87     ecut=    80.00 Ry     beta= 0.70
     Davidson diagonalization with overlap
     ethr =  1.87E-05,  avg # of iterations =  1.0

     negative rho (up, down):  5.903E-04 0.000E+00

     total cpu time spent up to now is      120.8 secs

     total energy              =    -293.94847871 Ry
     estimated scf accuracy    <       0.01662441 Ry

     iteration # 88     ecut=    80.00 Ry     beta= 0.70
     Davidson diagonalization with overlap
     ethr =  1.87E-05,  avg # of iterations =  1.0

     negative rho (up, down):  5.912E-04 0.000E+00

     total cpu time spent up to now is      122.1 secs

     total energy              =    -293.95144488 Ry
     estimated scf accuracy    <       0.01615446 Ry

     iteration # 89     ecut=    80.00 Ry     beta= 0.70
     Davidson diagonalization with overlap
     ethr =  1.87E-05,  avg # of iterations =  4.7

     negative rho (up, down):  5.901E-04 0.000E+00

     total cpu time spent up to now is      123.7 secs

     total energy              =    -293.94167518 Ry
     estimated scf accuracy    <       0.28593975 Ry

     iteration # 90     ecut=    80.00 Ry     beta= 0.70
     Davidson diagonalization with overlap
     ethr =  1.87E-05,  avg # of iterations =  4.9

     negative rho (up, down):  5.901E-04 0.000E+00

     total cpu time spent up to now is      125.4 secs

     total energy              =    -293.94881550 Ry
     estimated scf accuracy    <       0.05292091 Ry

     iteration # 91     ecut=    80.00 Ry     beta= 0.70
     Davidson diagonalization with overlap
     ethr =  1.87E-05,  avg # of iterations =  1.0

     negative rho (up, down):  5.901E-04 0.000E+00

     total cpu time spent up to now is      126.6 secs

     total energy              =    -293.94828475 Ry
     estimated scf accuracy    <       0.05359020 Ry

     iteration # 92     ecut=    80.00 Ry     beta= 0.70
     Davidson diagonalization with overlap
     ethr =  1.87E-05,  avg # of iterations =  1.0

     negative rho (up, down):  5.901E-04 0.000E+00

     total cpu time spent up to now is      127.8 secs

     total energy              =    -293.94824482 Ry
     estimated scf accuracy    <       0.05191495 Ry

     iteration # 93     ecut=    80.00 Ry     beta= 0.70
     Davidson diagonalization with overlap
     ethr =  1.87E-05,  avg # of iterations =  1.0

     negative rho (up, down):  5.900E-04 0.000E+00

     total cpu time spent up to now is      129.0 secs

     total energy              =    -293.94710586 Ry
     estimated scf accuracy    <       0.05192558 Ry

     iteration # 94     ecut=    80.00 Ry     beta= 0.70
     Davidson diagonalization with overlap
     ethr =  1.87E-05,  avg # of iterations =  2.7

     negative rho (up, down):  5.900E-04 0.000E+00

     total cpu time spent up to now is      130.4 secs

     total energy              =    -293.94879298 Ry
     estimated scf accuracy    <       0.04632052 Ry

     iteration # 95     ecut=    80.00 Ry     beta= 0.70
     Davidson diagonalization with overlap
     ethr =  1.87E-05,  avg # of iterations =  1.0

     negative rho (up, down):  5.896E-04 0.000E+00

     total cpu time spent up to now is      131.6 secs

     total energy              =    -293.94788149 Ry
     estimated scf accuracy    <       0.04681206 Ry

     iteration # 96     ecut=    80.00 Ry     beta= 0.70
     Davidson diagonalization with overlap
     ethr =  1.87E-05,  avg # of iterations =  1.2

     negative rho (up, down):  5.899E-04 0.000E+00

     total cpu time spent up to now is      132.8 secs

     total energy              =    -293.94762703 Ry
     estimated scf accuracy    <       0.03928233 Ry

     iteration # 97     ecut=    80.00 Ry     beta= 0.70
     Davidson diagonalization with overlap
     ethr =  1.87E-05,  avg # of iterations =  1.9

     negative rho (up, down):  5.898E-04 0.000E+00

     total cpu time spent up to now is      134.1 secs

     total energy              =    -293.94840820 Ry
     estimated scf accuracy    <       0.00457102 Ry

     iteration # 98     ecut=    80.00 Ry     beta= 0.70
     Davidson diagonalization with overlap
     ethr =  7.14E-06,  avg # of iterations =  2.0

     negative rho (up, down):  5.900E-04 0.000E+00

     total cpu time spent up to now is      135.4 secs

     total energy              =    -293.94852975 Ry
     estimated scf accuracy    <       0.01514664 Ry

     iteration # 99     ecut=    80.00 Ry     beta= 0.70
     Davidson diagonalization with overlap
     ethr =  7.14E-06,  avg # of iterations =  1.1

     negative rho (up, down):  5.899E-04 0.000E+00

     total cpu time spent up to now is      136.6 secs

     total energy              =    -293.94848362 Ry
     estimated scf accuracy    <       0.01532746 Ry

     iteration #100     ecut=    80.00 Ry     beta= 0.70
     Davidson diagonalization with overlap
     ethr =  7.14E-06,  avg # of iterations =  1.0

     negative rho (up, down):  5.900E-04 0.000E+00

     total cpu time spent up to now is      137.8 secs

     total energy              =    -293.94827934 Ry
     estimated scf accuracy    <       0.01525652 Ry

     iteration #101     ecut=    80.00 Ry     beta= 0.70
     Davidson diagonalization with overlap
     ethr =  7.14E-06,  avg # of iterations =  1.0

     negative rho (up, down):  5.901E-04 0.000E+00

     total cpu time spent up to now is      139.0 secs

     total energy              =    -293.94806813 Ry
     estimated scf accuracy    <       0.01394482 Ry

     iteration #102     ecut=    80.00 Ry     beta= 0.70
     Davidson diagonalization with overlap
     ethr =  7.14E-06,  avg # of iterations =  2.3

     negative rho (up, down):  5.901E-04 0.000E+00

     total cpu time spent up to now is      140.3 secs

     total energy              =    -293.94843462 Ry
     estimated scf accuracy    <       0.00600079 Ry

     iteration #103     ecut=    80.00 Ry     beta= 0.70
     Davidson diagonalization with overlap
     ethr =  7.14E-06,  avg # of iterations =  1.0

     negative rho (up, down):  5.900E-04 0.000E+00

     total cpu time spent up to now is      141.5 secs

     total energy              =    -293.94844366 Ry
     estimated scf accuracy    <       0.00616966 Ry

     iteration #104     ecut=    80.00 Ry     beta= 0.70
     Davidson diagonalization with overlap
     ethr =  7.14E-06,  avg # of iterations =  1.0

     negative rho (up, down):  5.900E-04 0.000E+00

     total cpu time spent up to now is      142.7 secs

     total energy              =    -293.94839341 Ry
     estimated scf accuracy    <       0.00639639 Ry

     iteration #105     ecut=    80.00 Ry     beta= 0.70
     Davidson diagonalization with overlap
     ethr =  7.14E-06,  avg # of iterations =  1.0

     negative rho (up, down):  5.901E-04 0.000E+00

     total cpu time spent up to now is      144.0 secs

     total energy              =    -293.94818723 Ry
     estimated scf accuracy    <       0.00639473 Ry

     iteration #106     ecut=    80.00 Ry     beta= 0.70
     Davidson diagonalization with overlap
     ethr =  7.14E-06,  avg # of iterations =  2.3

     negative rho (up, down):  5.901E-04 0.000E+00

     total cpu time spent up to now is      145.2 secs

     total energy              =    -293.94831964 Ry
     estimated scf accuracy    <       0.00681799 Ry

     iteration #107     ecut=    80.00 Ry     beta= 0.70
     Davidson diagonalization with overlap
     ethr =  7.14E-06,  avg # of iterations =  1.0

     negative rho (up, down):  5.901E-04 0.000E+00

     total cpu time spent up to now is      146.5 secs

     total energy              =    -293.94831770 Ry
     estimated scf accuracy    <       0.00618221 Ry

     iteration #108     ecut=    80.00 Ry     beta= 0.70
     Davidson diagonalization with overlap
     ethr =  7.14E-06,  avg # of iterations =  1.0

     negative rho (up, down):  5.901E-04 0.000E+00

     total cpu time spent up to now is      147.7 secs

     total energy              =    -293.94832793 Ry
     estimated scf accuracy    <       0.00607498 Ry

     iteration #109     ecut=    80.00 Ry     beta= 0.70
     Davidson diagonalization with overlap
     ethr =  7.14E-06,  avg # of iterations =  1.0

     negative rho (up, down):  5.902E-04 0.000E+00

     total cpu time spent up to now is      148.9 secs

     total energy              =    -293.94830132 Ry
     estimated scf accuracy    <       0.00596156 Ry

     iteration #110     ecut=    80.00 Ry     beta= 0.70
     Davidson diagonalization with overlap
     ethr =  7.14E-06,  avg # of iterations =  1.0

     negative rho (up, down):  5.901E-04 0.000E+00

     total cpu time spent up to now is      150.1 secs

     total energy              =    -293.94827173 Ry
     estimated scf accuracy    <       0.00566924 Ry

     iteration #111     ecut=    80.00 Ry     beta= 0.70
     Davidson diagonalization with overlap
     ethr =  7.14E-06,  avg # of iterations =  1.0

     negative rho (up, down):  5.901E-04 0.000E+00

     total cpu time spent up to now is      151.3 secs

     total energy              =    -293.94827299 Ry
     estimated scf accuracy    <       0.00521161 Ry

     iteration #112     ecut=    80.00 Ry     beta= 0.70
     Davidson diagonalization with overlap
     ethr =  7.14E-06,  avg # of iterations =  1.0

     negative rho (up, down):  5.901E-04 0.000E+00

     total cpu time spent up to now is      152.5 secs

     total energy              =    -293.94832562 Ry
     estimated scf accuracy    <       0.00503983 Ry

     iteration #113     ecut=    80.00 Ry     beta= 0.70
     Davidson diagonalization with overlap
     ethr =  7.14E-06,  avg # of iterations =  1.0

     negative rho (up, down):  5.901E-04 0.000E+00

     total cpu time spent up to now is      153.7 secs

     total energy              =    -293.94836631 Ry
     estimated scf accuracy    <       0.00504673 Ry

     iteration #114     ecut=    80.00 Ry     beta= 0.70
     Davidson diagonalization with overlap
     ethr =  7.14E-06,  avg # of iterations =  1.0

     negative rho (up, down):  5.891E-04 0.000E+00

     total cpu time spent up to now is      154.9 secs

     total energy              =    -293.94728452 Ry
     estimated scf accuracy    <       0.00516842 Ry

     iteration #115     ecut=    80.00 Ry     beta= 0.70
     Davidson diagonalization with overlap
     ethr =  7.14E-06,  avg # of iterations =  4.9

     negative rho (up, down):  5.898E-04 0.000E+00

     total cpu time spent up to now is      156.6 secs

     total energy              =    -293.95085200 Ry
     estimated scf accuracy    <       0.22338997 Ry

     iteration #116     ecut=    80.00 Ry     beta= 0.70
     Davidson diagonalization with overlap
     ethr =  7.14E-06,  avg # of iterations =  2.6

     negative rho (up, down):  5.902E-04 0.000E+00

     total cpu time spent up to now is      157.9 secs

     total energy              =    -293.94730056 Ry
     estimated scf accuracy    <       0.17963083 Ry

     iteration #117     ecut=    80.00 Ry     beta= 0.70
     Davidson diagonalization with overlap
     ethr =  7.14E-06,  avg # of iterations =  4.2

     negative rho (up, down):  5.902E-04 0.000E+00

     total cpu time spent up to now is      159.3 secs

     total energy              =    -293.94844025 Ry
     estimated scf accuracy    <       0.01022523 Ry

     iteration #118     ecut=    80.00 Ry     beta= 0.70
     Davidson diagonalization with overlap
     ethr =  7.14E-06,  avg # of iterations =  1.0

     negative rho (up, down):  5.901E-04 0.000E+00

     total cpu time spent up to now is      160.6 secs

     total energy              =    -293.94872990 Ry
     estimated scf accuracy    <       0.01010776 Ry

     iteration #119     ecut=    80.00 Ry     beta= 0.70
     Davidson diagonalization with overlap
     ethr =  7.14E-06,  avg # of iterations =  2.0

     negative rho (up, down):  5.900E-04 0.000E+00

     total cpu time spent up to now is      161.8 secs

     total energy              =    -293.94859552 Ry
     estimated scf accuracy    <       0.05050614 Ry

     iteration #120     ecut=    80.00 Ry     beta= 0.70
     Davidson diagonalization with overlap
     ethr =  7.14E-06,  avg # of iterations =  1.0

     negative rho (up, down):  5.900E-04 0.000E+00

     total cpu time spent up to now is      163.1 secs

     total energy              =    -293.94846153 Ry
     estimated scf accuracy    <       0.04932938 Ry

     iteration #121     ecut=    80.00 Ry     beta= 0.70
     Davidson diagonalization with overlap
     ethr =  7.14E-06,  avg # of iterations =  1.0

     negative rho (up, down):  5.900E-04 0.000E+00

     total cpu time spent up to now is      164.3 secs

     total energy              =    -293.94826945 Ry
     estimated scf accuracy    <       0.04875313 Ry

     iteration #122     ecut=    80.00 Ry     beta= 0.70
     Davidson diagonalization with overlap
     ethr =  7.14E-06,  avg # of iterations =  1.0

     negative rho (up, down):  5.901E-04 0.000E+00

     total cpu time spent up to now is      165.5 secs

     total energy              =    -293.94766275 Ry
     estimated scf accuracy    <       0.04744290 Ry

     iteration #123     ecut=    80.00 Ry     beta= 0.70
     Davidson diagonalization with overlap
     ethr =  7.14E-06,  avg # of iterations =  2.3

     negative rho (up, down):  5.901E-04 0.000E+00

     total cpu time spent up to now is      166.8 secs

     total energy              =    -293.94859874 Ry
     estimated scf accuracy    <       0.00829663 Ry

     iteration #124     ecut=    80.00 Ry     beta= 0.70
     Davidson diagonalization with overlap
     ethr =  7.14E-06,  avg # of iterations =  1.6

     negative rho (up, down):  5.901E-04 0.000E+00

     total cpu time spent up to now is      168.1 secs

     total energy              =    -293.94858874 Ry
     estimated scf accuracy    <       0.00989647 Ry

     iteration #125     ecut=    80.00 Ry     beta= 0.70
     Davidson diagonalization with overlap
     ethr =  7.14E-06,  avg # of iterations =  1.0

     negative rho (up, down):  5.901E-04 0.000E+00

     total cpu time spent up to now is      169.3 secs

     total energy              =    -293.94814032 Ry
     estimated scf accuracy    <       0.01011996 Ry

     iteration #126     ecut=    80.00 Ry     beta= 0.70
     Davidson diagonalization with overlap
     ethr =  7.14E-06,  avg # of iterations =  2.9

     negative rho (up, down):  5.901E-04 0.000E+00

     total cpu time spent up to now is      170.6 secs

     total energy              =    -293.94837456 Ry
     estimated scf accuracy    <       0.00725462 Ry

     iteration #127     ecut=    80.00 Ry     beta= 0.70
     Davidson diagonalization with overlap
     ethr =  7.14E-06,  avg # of iterations =  1.0

     negative rho (up, down):  5.901E-04 0.000E+00

     total cpu time spent up to now is      171.8 secs

     total energy              =    -293.94836976 Ry
     estimated scf accuracy    <       0.00717944 Ry

     iteration #128     ecut=    80.00 Ry     beta= 0.70
     Davidson diagonalization with overlap
     ethr =  7.14E-06,  avg # of iterations =  1.0

     negative rho (up, down):  5.900E-04 0.000E+00

     total cpu time spent up to now is      173.1 secs

     total energy              =    -293.94834089 Ry
     estimated scf accuracy    <       0.00718794 Ry

     iteration #129     ecut=    80.00 Ry     beta= 0.70
     Davidson diagonalization with overlap
     ethr =  7.14E-06,  avg # of iterations =  1.0

     negative rho (up, down):  5.900E-04 0.000E+00

     total cpu time spent up to now is      174.3 secs

     total energy              =    -293.94830843 Ry
     estimated scf accuracy    <       0.00708476 Ry

     iteration #130     ecut=    80.00 Ry     beta= 0.70
     Davidson diagonalization with overlap
     ethr =  7.14E-06,  avg # of iterations =  1.0

     negative rho (up, down):  5.899E-04 0.000E+00

     total cpu time spent up to now is      175.5 secs

     total energy              =    -293.94807997 Ry
     estimated scf accuracy    <       0.00690251 Ry

     iteration #131     ecut=    80.00 Ry     beta= 0.70
     Davidson diagonalization with overlap
     ethr =  7.14E-06,  avg # of iterations =  2.8

     negative rho (up, down):  5.900E-04 0.000E+00

     total cpu time spent up to now is      176.8 secs

     total energy              =    -293.94836347 Ry
     estimated scf accuracy    <       0.01641471 Ry

     iteration #132     ecut=    80.00 Ry     beta= 0.70
     Davidson diagonalization with overlap
     ethr =  7.14E-06,  avg # of iterations =  1.0

     negative rho (up, down):  5.900E-04 0.000E+00

     total cpu time spent up to now is      178.0 secs

     total energy              =    -293.94835672 Ry
     estimated scf accuracy    <       0.01562208 Ry

     iteration #133     ecut=    80.00 Ry     beta= 0.70
     Davidson diagonalization with overlap
     ethr =  7.14E-06,  avg # of iterations =  1.0

     negative rho (up, down):  5.900E-04 0.000E+00

     total cpu time spent up to now is      179.3 secs

     total energy              =    -293.94832003 Ry
     estimated scf accuracy    <       0.01543733 Ry

     iteration #134     ecut=    80.00 Ry     beta= 0.70
     Davidson diagonalization with overlap
     ethr =  7.14E-06,  avg # of iterations =  1.0

     negative rho (up, down):  5.900E-04 0.000E+00

     total cpu time spent up to now is      180.5 secs

     total energy              =    -293.94828825 Ry
     estimated scf accuracy    <       0.01509809 Ry

     iteration #135     ecut=    80.00 Ry     beta= 0.70
     Davidson diagonalization with overlap
     ethr =  7.14E-06,  avg # of iterations =  1.0

     negative rho (up, down):  5.900E-04 0.000E+00

     total cpu time spent up to now is      181.7 secs

     total energy              =    -293.94815663 Ry
     estimated scf accuracy    <       0.01479789 Ry

     iteration #136     ecut=    80.00 Ry     beta= 0.70
     Davidson diagonalization with overlap
     ethr =  7.14E-06,  avg # of iterations =  1.0

     negative rho (up, down):  5.900E-04 0.000E+00

     total cpu time spent up to now is      182.9 secs

     total energy              =    -293.94814402 Ry
     estimated scf accuracy    <       0.01381675 Ry

     iteration #137     ecut=    80.00 Ry     beta= 0.70
     Davidson diagonalization with overlap
     ethr =  7.14E-06,  avg # of iterations =  1.0

     negative rho (up, down):  5.900E-04 0.000E+00

     total cpu time spent up to now is      184.1 secs

     total energy              =    -293.94810764 Ry
     estimated scf accuracy    <       0.01359533 Ry

     iteration #138     ecut=    80.00 Ry     beta= 0.70
     Davidson diagonalization with overlap
     ethr =  7.14E-06,  avg # of iterations =  2.0

     negative rho (up, down):  5.900E-04 0.000E+00

     total cpu time spent up to now is      185.4 secs

     total energy              =    -293.94838477 Ry
     estimated scf accuracy    <       0.00414227 Ry

     iteration #139     ecut=    80.00 Ry     beta= 0.70
     Davidson diagonalization with overlap
     ethr =  6.47E-06,  avg # of iterations =  1.0

     negative rho (up, down):  5.902E-04 0.000E+00

     total cpu time spent up to now is      186.6 secs

     total energy              =    -293.94819837 Ry
     estimated scf accuracy    <       0.00412206 Ry

     iteration #140     ecut=    80.00 Ry     beta= 0.70
     Davidson diagonalization with overlap
     ethr =  6.44E-06,  avg # of iterations =  2.2

     negative rho (up, down):  5.901E-04 0.000E+00

     total cpu time spent up to now is      187.9 secs

     total energy              =    -293.94825711 Ry
     estimated scf accuracy    <       0.01133723 Ry

     iteration #141     ecut=    80.00 Ry     beta= 0.70
     Davidson diagonalization with overlap
     ethr =  6.44E-06,  avg # of iterations =  1.2

     negative rho (up, down):  5.901E-04 0.000E+00

     total cpu time spent up to now is      189.1 secs

     total energy              =    -293.94816025 Ry
     estimated scf accuracy    <       0.00990424 Ry

     iteration #142     ecut=    80.00 Ry     beta= 0.70
     Davidson diagonalization with overlap
     ethr =  6.44E-06,  avg # of iterations =  1.1

     negative rho (up, down):  5.900E-04 0.000E+00

     total cpu time spent up to now is      190.4 secs

     total energy              =    -293.94810463 Ry
     estimated scf accuracy    <       0.00897751 Ry

     iteration #143     ecut=    80.00 Ry     beta= 0.70
     Davidson diagonalization with overlap
     ethr =  6.44E-06,  avg # of iterations =  2.1

     negative rho (up, down):  5.900E-04 0.000E+00

     total cpu time spent up to now is      191.7 secs

     total energy              =    -293.94855136 Ry
     estimated scf accuracy    <       0.02068517 Ry

     iteration #144     ecut=    80.00 Ry     beta= 0.70
     Davidson diagonalization with overlap
     ethr =  6.44E-06,  avg # of iterations =  1.0

     negative rho (up, down):  5.901E-04 0.000E+00

     total cpu time spent up to now is      192.9 secs

     total energy              =    -293.94849076 Ry
     estimated scf accuracy    <       0.02091821 Ry

     iteration #145     ecut=    80.00 Ry     beta= 0.70
     Davidson diagonalization with overlap
     ethr =  6.44E-06,  avg # of iterations =  1.0

     negative rho (up, down):  5.901E-04 0.000E+00

     total cpu time spent up to now is      194.1 secs

     total energy              =    -293.94840602 Ry
     estimated scf accuracy    <       0.02079363 Ry

     iteration #146     ecut=    80.00 Ry     beta= 0.70
     Davidson diagonalization with overlap
     ethr =  6.44E-06,  avg # of iterations =  1.0

     negative rho (up, down):  5.900E-04 0.000E+00

     total cpu time spent up to now is      195.3 secs

     total energy              =    -293.94851035 Ry
     estimated scf accuracy    <       0.02033204 Ry

     iteration #147     ecut=    80.00 Ry     beta= 0.70
     Davidson diagonalization with overlap
     ethr =  6.44E-06,  avg # of iterations =  1.0

     negative rho (up, down):  5.901E-04 0.000E+00

     total cpu time spent up to now is      196.5 secs

     total energy              =    -293.94845171 Ry
     estimated scf accuracy    <       0.02076651 Ry

     iteration #148     ecut=    80.00 Ry     beta= 0.70
     Davidson diagonalization with overlap
     ethr =  6.44E-06,  avg # of iterations =  1.0

     negative rho (up, down):  5.900E-04 0.000E+00

     total cpu time spent up to now is      197.8 secs

     total energy              =    -293.94875545 Ry
     estimated scf accuracy    <       0.02053485 Ry

     iteration #149     ecut=    80.00 Ry     beta= 0.70
     Davidson diagonalization with overlap
     ethr =  6.44E-06,  avg # of iterations =  1.7

     negative rho (up, down):  5.900E-04 0.000E+00

     total cpu time spent up to now is      199.0 secs

     total energy              =    -293.94879899 Ry
     estimated scf accuracy    <       0.02406834 Ry

     iteration #150     ecut=    80.00 Ry     beta= 0.70
     Davidson diagonalization with overlap
     ethr =  6.44E-06,  avg # of iterations =  1.0

     negative rho (up, down):  5.900E-04 0.000E+00

     total cpu time spent up to now is      200.2 secs

     total energy              =    -293.94882227 Ry
     estimated scf accuracy    <       0.02433614 Ry

     iteration #151     ecut=    80.00 Ry     beta= 0.70
     Davidson diagonalization with overlap
     ethr =  6.44E-06,  avg # of iterations =  1.0

     negative rho (up, down):  5.920E-04 0.000E+00

     total cpu time spent up to now is      201.4 secs

     total energy              =    -293.94160789 Ry
     estimated scf accuracy    <       0.02478088 Ry

     iteration #152     ecut=    80.00 Ry     beta= 0.70
     Davidson diagonalization with overlap
     ethr =  6.44E-06,  avg # of iterations = 12.0

     negative rho (up, down):  5.911E-04 0.000E+00

     total cpu time spent up to now is      204.1 secs

     total energy              =    -293.94613509 Ry
     estimated scf accuracy    <       1.18156696 Ry

     iteration #153     ecut=    80.00 Ry     beta= 0.70
     Davidson diagonalization with overlap
     ethr =  6.44E-06,  avg # of iterations =  8.7

     negative rho (up, down):  5.904E-04 0.000E+00

     total cpu time spent up to now is      206.2 secs

     total energy              =    -293.94807757 Ry
     estimated scf accuracy    <       0.26465428 Ry

     iteration #154     ecut=    80.00 Ry     beta= 0.70
     Davidson diagonalization with overlap
     ethr =  6.44E-06,  avg # of iterations =  5.2

     negative rho (up, down):  5.903E-04 0.000E+00

     total cpu time spent up to now is      207.9 secs

     total energy              =    -293.94825396 Ry
     estimated scf accuracy    <       0.09778966 Ry

     iteration #155     ecut=    80.00 Ry     beta= 0.70
     Davidson diagonalization with overlap
     ethr =  6.44E-06,  avg # of iterations =  1.2

     negative rho (up, down):  5.903E-04 0.000E+00

     total cpu time spent up to now is      209.1 secs

     total energy              =    -293.94748284 Ry
     estimated scf accuracy    <       0.09050904 Ry

     iteration #156     ecut=    80.00 Ry     beta= 0.70
     Davidson diagonalization with overlap
     ethr =  6.44E-06,  avg # of iterations =  2.9

     negative rho (up, down):  5.902E-04 0.000E+00

     total cpu time spent up to now is      210.5 secs

     total energy              =    -293.94828198 Ry
     estimated scf accuracy    <       0.00047980 Ry

     iteration #157     ecut=    80.00 Ry     beta= 0.70
     Davidson diagonalization with overlap
     ethr =  7.50E-07,  avg # of iterations =  6.3

     negative rho (up, down):  5.901E-04 0.000E+00

     total cpu time spent up to now is      212.3 secs

     total energy              =    -293.94794963 Ry
     estimated scf accuracy    <       0.01994330 Ry

     iteration #158     ecut=    80.00 Ry     beta= 0.70
     Davidson diagonalization with overlap
     ethr =  7.50E-07,  avg # of iterations =  5.6

     negative rho (up, down):  5.901E-04 0.000E+00

     total cpu time spent up to now is      214.0 secs

     total energy              =    -293.94843623 Ry
     estimated scf accuracy    <       0.01553972 Ry

     iteration #159     ecut=    80.00 Ry     beta= 0.70
     Davidson diagonalization with overlap
     ethr =  7.50E-07,  avg # of iterations =  1.1

     negative rho (up, down):  5.901E-04 0.000E+00

     total cpu time spent up to now is      215.2 secs

     total energy              =    -293.94863816 Ry
     estimated scf accuracy    <       0.01516424 Ry

     iteration #160     ecut=    80.00 Ry     beta= 0.70
     Davidson diagonalization with overlap
     ethr =  7.50E-07,  avg # of iterations =  1.1

     negative rho (up, down):  5.901E-04 0.000E+00

     total cpu time spent up to now is      216.4 secs

     total energy              =    -293.94920688 Ry
     estimated scf accuracy    <       0.01615154 Ry

     iteration #161     ecut=    80.00 Ry     beta= 0.70
     Davidson diagonalization with overlap
     ethr =  7.50E-07,  avg # of iterations =  8.0

     negative rho (up, down):  5.901E-04 0.000E+00

     total cpu time spent up to now is      218.5 secs

     total energy              =    -293.95334157 Ry
     estimated scf accuracy    <       0.14669612 Ry

     iteration #162     ecut=    80.00 Ry     beta= 0.70
     Davidson diagonalization with overlap
     ethr =  7.50E-07,  avg # of iterations =  7.0

     negative rho (up, down):  5.901E-04 0.000E+00

     total cpu time spent up to now is      220.5 secs

     total energy              =    -293.95147104 Ry
     estimated scf accuracy    <       0.22388241 Ry

     iteration #163     ecut=    80.00 Ry     beta= 0.70
     Davidson diagonalization with overlap
     ethr =  7.50E-07,  avg # of iterations =  4.6

     negative rho (up, down):  5.900E-04 0.000E+00

     total cpu time spent up to now is      222.0 secs

     total energy              =    -293.95124945 Ry
     estimated scf accuracy    <       0.18034822 Ry

     iteration #164     ecut=    80.00 Ry     beta= 0.70
     Davidson diagonalization with overlap
     ethr =  7.50E-07,  avg # of iterations =  1.2

     negative rho (up, down):  5.899E-04 0.000E+00

     total cpu time spent up to now is      223.3 secs

     total energy              =    -293.94756364 Ry
     estimated scf accuracy    <       0.17791008 Ry

     iteration #165     ecut=    80.00 Ry     beta= 0.70
     Davidson diagonalization with overlap
     ethr =  7.50E-07,  avg # of iterations =  8.1

     negative rho (up, down):  5.899E-04 0.000E+00

     total cpu time spent up to now is      225.5 secs

     total energy              =    -293.94853007 Ry
     estimated scf accuracy    <       0.02172678 Ry

     iteration #166     ecut=    80.00 Ry     beta= 0.70
     Davidson diagonalization with overlap
     ethr =  7.50E-07,  avg # of iterations =  1.1

     negative rho (up, down):  5.899E-04 0.000E+00

     total cpu time spent up to now is      226.7 secs

     total energy              =    -293.95010822 Ry
     estimated scf accuracy    <       0.02150122 Ry

     iteration #167     ecut=    80.00 Ry     beta= 0.70
     Davidson diagonalization with overlap
     ethr =  7.50E-07,  avg # of iterations =  7.9

     negative rho (up, down):  5.900E-04 0.000E+00

     total cpu time spent up to now is      228.9 secs

     total energy              =    -293.95071877 Ry
     estimated scf accuracy    <       0.18495253 Ry

     iteration #168     ecut=    80.00 Ry     beta= 0.70
     Davidson diagonalization with overlap
     ethr =  7.50E-07,  avg # of iterations =  3.0

     negative rho (up, down):  5.901E-04 0.000E+00

     total cpu time spent up to now is      230.3 secs

     total energy              =    -293.94875566 Ry
     estimated scf accuracy    <       0.16327068 Ry

     iteration #169     ecut=    80.00 Ry     beta= 0.70
     Davidson diagonalization with overlap
     ethr =  7.50E-07,  avg # of iterations =  6.6

     negative rho (up, down):  5.900E-04 0.000E+00

     total cpu time spent up to now is      232.2 secs

     total energy              =    -293.94789324 Ry
     estimated scf accuracy    <       0.07396020 Ry

     iteration #170     ecut=    80.00 Ry     beta= 0.70
     Davidson diagonalization with overlap
     ethr =  7.50E-07,  avg # of iterations =  7.2

     negative rho (up, down):  5.899E-04 0.000E+00

     total cpu time spent up to now is      234.1 secs

     total energy              =    -293.94835242 Ry
     estimated scf accuracy    <       0.00042235 Ry

     iteration #171     ecut=    80.00 Ry     beta= 0.70
     Davidson diagonalization with overlap
     ethr =  6.60E-07,  avg # of iterations =  3.7

     negative rho (up, down):  5.899E-04 0.000E+00

     total cpu time spent up to now is      235.5 secs

     total energy              =    -293.94851236 Ry
     estimated scf accuracy    <       0.01148020 Ry

     iteration #172     ecut=    80.00 Ry     beta= 0.70
     Davidson diagonalization with overlap
     ethr =  6.60E-07,  avg # of iterations =  1.0

     negative rho (up, down):  5.900E-04 0.000E+00

     total cpu time spent up to now is      236.7 secs

     total energy              =    -293.94843302 Ry
     estimated scf accuracy    <       0.01164927 Ry

     iteration #173     ecut=    80.00 Ry     beta= 0.70
     Davidson diagonalization with overlap
     ethr =  6.60E-07,  avg # of iterations =  1.0

     negative rho (up, down):  5.900E-04 0.000E+00

     total cpu time spent up to now is      237.9 secs

     total energy              =    -293.94808262 Ry
     estimated scf accuracy    <       0.01140494 Ry

     iteration #174     ecut=    80.00 Ry     beta= 0.70
     Davidson diagonalization with overlap
     ethr =  6.60E-07,  avg # of iterations =  3.9

     negative rho (up, down):  5.900E-04 0.000E+00

     total cpu time spent up to now is      239.4 secs

     total energy              =    -293.94830121 Ry
     estimated scf accuracy    <       0.02151101 Ry

     iteration #175     ecut=    80.00 Ry     beta= 0.70
     Davidson diagonalization with overlap
     ethr =  6.60E-07,  avg # of iterations =  2.8

     negative rho (up, down):  5.901E-04 0.000E+00

     total cpu time spent up to now is      240.8 secs

     total energy              =    -293.94837958 Ry
     estimated scf accuracy    <       0.00083285 Ry

     iteration #176     ecut=    80.00 Ry     beta= 0.70
     Davidson diagonalization with overlap
     ethr =  6.60E-07,  avg # of iterations =  2.2

     negative rho (up, down):  5.901E-04 0.000E+00

     total cpu time spent up to now is      242.0 secs

     total energy              =    -293.94839431 Ry
     estimated scf accuracy    <       0.00016046 Ry

     iteration #177     ecut=    80.00 Ry     beta= 0.70
     Davidson diagonalization with overlap
     ethr =  2.51E-07,  avg # of iterations =  1.2

     negative rho (up, down):  5.900E-04 0.000E+00

     total cpu time spent up to now is      243.3 secs

     total energy              =    -293.94839071 Ry
     estimated scf accuracy    <       0.00016571 Ry

     iteration #178     ecut=    80.00 Ry     beta= 0.70
     Davidson diagonalization with overlap
     ethr =  2.51E-07,  avg # of iterations =  1.1

     negative rho (up, down):  5.898E-04 0.000E+00

     total cpu time spent up to now is      244.5 secs

     total energy              =    -293.94837299 Ry
     estimated scf accuracy    <       0.00015101 Ry

     iteration #179     ecut=    80.00 Ry     beta= 0.70
     Davidson diagonalization with overlap
     ethr =  2.36E-07,  avg # of iterations =  3.2

     negative rho (up, down):  5.899E-04 0.000E+00

     total cpu time spent up to now is      245.9 secs

     total energy              =    -293.94838420 Ry
     estimated scf accuracy    <       0.01075750 Ry

     iteration #180     ecut=    80.00 Ry     beta= 0.70
     Davidson diagonalization with overlap
     ethr =  2.36E-07,  avg # of iterations =  2.8

     negative rho (up, down):  5.900E-04 0.000E+00

     total cpu time spent up to now is      247.3 secs

     total energy              =    -293.94838860 Ry
     estimated scf accuracy    <       0.00205719 Ry

     iteration #181     ecut=    80.00 Ry     beta= 0.70
     Davidson diagonalization with overlap
     ethr =  2.36E-07,  avg # of iterations =  2.2

     negative rho (up, down):  5.900E-04 0.000E+00

     total cpu time spent up to now is      248.5 secs

     total energy              =    -293.94839563 Ry
     estimated scf accuracy    <       0.00034078 Ry

     iteration #182     ecut=    80.00 Ry     beta= 0.70
     Davidson diagonalization with overlap
     ethr =  2.36E-07,  avg # of iterations =  1.0

     negative rho (up, down):  5.900E-04 0.000E+00

     total cpu time spent up to now is      249.8 secs

     total energy              =    -293.94840416 Ry
     estimated scf accuracy    <       0.00033552 Ry

     iteration #183     ecut=    80.00 Ry     beta= 0.70
     Davidson diagonalization with overlap
     ethr =  2.36E-07,  avg # of iterations =  2.0

     negative rho (up, down):  5.898E-04 0.000E+00

     total cpu time spent up to now is      251.0 secs

     total energy              =    -293.94844679 Ry
     estimated scf accuracy    <       0.00214984 Ry

     iteration #184     ecut=    80.00 Ry     beta= 0.70
     Davidson diagonalization with overlap
     ethr =  2.36E-07,  avg # of iterations =  2.6

     negative rho (up, down):  5.898E-04 0.000E+00

     total cpu time spent up to now is      252.4 secs

     total energy              =    -293.94846184 Ry
     estimated scf accuracy    <       0.01000662 Ry

     iteration #185     ecut=    80.00 Ry     beta= 0.70
     Davidson diagonalization with overlap
     ethr =  2.36E-07,  avg # of iterations =  1.0

     negative rho (up, down):  5.899E-04 0.000E+00

     total cpu time spent up to now is      253.6 secs

     total energy              =    -293.94844189 Ry
     estimated scf accuracy    <       0.00999472 Ry

     iteration #186     ecut=    80.00 Ry     beta= 0.70
     Davidson diagonalization with overlap
     ethr =  2.36E-07,  avg # of iterations =  1.0

     negative rho (up, down):  5.900E-04 0.000E+00

     total cpu time spent up to now is      254.8 secs

     total energy              =    -293.94835537 Ry
     estimated scf accuracy    <       0.00988489 Ry

     iteration #187     ecut=    80.00 Ry     beta= 0.70
     Davidson diagonalization with overlap
     ethr =  2.36E-07,  avg # of iterations =  2.3

     negative rho (up, down):  5.900E-04 0.000E+00

     total cpu time spent up to now is      256.2 secs

     total energy              =    -293.94839388 Ry
     estimated scf accuracy    <       0.00046925 Ry

     iteration #188     ecut=    80.00 Ry     beta= 0.70
     Davidson diagonalization with overlap
     ethr =  2.36E-07,  avg # of iterations =  1.0

     negative rho (up, down):  5.900E-04 0.000E+00

     total cpu time spent up to now is      257.4 secs

     total energy              =    -293.94838903 Ry
     estimated scf accuracy    <       0.00044484 Ry

     iteration #189     ecut=    80.00 Ry     beta= 0.70
     Davidson diagonalization with overlap
     ethr =  2.36E-07,  avg # of iterations =  1.6

     negative rho (up, down):  5.900E-04 0.000E+00

     total cpu time spent up to now is      258.6 secs

     total energy              =    -293.94838566 Ry
     estimated scf accuracy    <       0.00036836 Ry

     iteration #190     ecut=    80.00 Ry     beta= 0.70
     Davidson diagonalization with overlap
     ethr =  2.36E-07,  avg # of iterations =  2.2

     negative rho (up, down):  5.900E-04 0.000E+00

     total cpu time spent up to now is      259.9 secs

     total energy              =    -293.94839779 Ry
     estimated scf accuracy    <       0.00025941 Ry

     iteration #191     ecut=    80.00 Ry     beta= 0.70
     Davidson diagonalization with overlap
     ethr =  2.36E-07,  avg # of iterations =  1.0

     negative rho (up, down):  5.900E-04 0.000E+00

     total cpu time spent up to now is      261.1 secs

     total energy              =    -293.94839697 Ry
     estimated scf accuracy    <       0.00027196 Ry

     iteration #192     ecut=    80.00 Ry     beta= 0.70
     Davidson diagonalization with overlap
     ethr =  2.36E-07,  avg # of iterations =  1.0

     negative rho (up, down):  5.900E-04 0.000E+00

     total cpu time spent up to now is      262.4 secs

     total energy              =    -293.94839649 Ry
     estimated scf accuracy    <       0.00027706 Ry

     iteration #193     ecut=    80.00 Ry     beta= 0.70
     Davidson diagonalization with overlap
     ethr =  2.36E-07,  avg # of iterations =  1.0

     negative rho (up, down):  5.901E-04 0.000E+00

     total cpu time spent up to now is      263.6 secs

     total energy              =    -293.94839571 Ry
     estimated scf accuracy    <       0.00028640 Ry

     iteration #194     ecut=    80.00 Ry     beta= 0.70
     Davidson diagonalization with overlap
     ethr =  2.36E-07,  avg # of iterations =  1.0

     negative rho (up, down):  5.901E-04 0.000E+00

     total cpu time spent up to now is      264.8 secs

     total energy              =    -293.94839291 Ry
     estimated scf accuracy    <       0.00029508 Ry

     iteration #195     ecut=    80.00 Ry     beta= 0.70
     Davidson diagonalization with overlap
     ethr =  2.36E-07,  avg # of iterations =  1.0

     negative rho (up, down):  5.901E-04 0.000E+00

     total cpu time spent up to now is      266.0 secs

     total energy              =    -293.94839207 Ry
     estimated scf accuracy    <       0.00027833 Ry

     iteration #196     ecut=    80.00 Ry     beta= 0.70
     Davidson diagonalization with overlap
     ethr =  2.36E-07,  avg # of iterations =  1.0

     negative rho (up, down):  5.901E-04 0.000E+00

     total cpu time spent up to now is      267.2 secs

     total energy              =    -293.94839088 Ry
     estimated scf accuracy    <       0.00027243 Ry

     iteration #197     ecut=    80.00 Ry     beta= 0.70
     Davidson diagonalization with overlap
     ethr =  2.36E-07,  avg # of iterations =  1.0

     negative rho (up, down):  5.900E-04 0.000E+00

     total cpu time spent up to now is      268.4 secs

     total energy              =    -293.94839091 Ry
     estimated scf accuracy    <       0.00026156 Ry

     iteration #198     ecut=    80.00 Ry     beta= 0.70
     Davidson diagonalization with overlap
     ethr =  2.36E-07,  avg # of iterations =  1.0

     negative rho (up, down):  5.895E-04 0.000E+00

     total cpu time spent up to now is      269.7 secs

     total energy              =    -293.94831780 Ry
     estimated scf accuracy    <       0.00025587 Ry

     iteration #199     ecut=    80.00 Ry     beta= 0.70
     Davidson diagonalization with overlap
     ethr =  2.36E-07,  avg # of iterations =  7.7

     negative rho (up, down):  5.901E-04 0.000E+00

     total cpu time spent up to now is      271.7 secs

     total energy              =    -293.94786436 Ry
     estimated scf accuracy    <       0.08476223 Ry

     iteration #200     ecut=    80.00 Ry     beta= 0.70
     Davidson diagonalization with overlap
     ethr =  2.36E-07,  avg # of iterations =  7.2

     negative rho (up, down):  5.901E-04 0.000E+00

     total cpu time spent up to now is      273.7 secs

     total energy              =    -293.94838606 Ry
     estimated scf accuracy    <       0.00086910 Ry

     iteration #201     ecut=    80.00 Ry     beta= 0.70
     Davidson diagonalization with overlap
     ethr =  2.36E-07,  avg # of iterations =  1.9

     negative rho (up, down):  5.901E-04 0.000E+00

     total cpu time spent up to now is      274.9 secs

     total energy              =    -293.94839386 Ry
     estimated scf accuracy    <       0.00000497 Ry

     iteration #202     ecut=    80.00 Ry     beta= 0.70
     Davidson diagonalization with overlap
     ethr =  7.76E-09,  avg # of iterations =  6.4

     negative rho (up, down):  5.901E-04 0.000E+00

     total cpu time spent up to now is      276.8 secs

     total energy              =    -293.94839619 Ry
     estimated scf accuracy    <       0.00001084 Ry

     iteration #203     ecut=    80.00 Ry     beta= 0.70
     Davidson diagonalization with overlap
     ethr =  7.76E-09,  avg # of iterations =  2.8

     negative rho (up, down):  5.900E-04 0.000E+00

     total cpu time spent up to now is      278.2 secs

     total energy              =    -293.94839822 Ry
     estimated scf accuracy    <       0.00021352 Ry

     iteration #204     ecut=    80.00 Ry     beta= 0.70
     Davidson diagonalization with overlap
     ethr =  7.76E-09,  avg # of iterations =  1.1

     negative rho (up, down):  5.900E-04 0.000E+00

     total cpu time spent up to now is      279.4 secs

     total energy              =    -293.94839941 Ry
     estimated scf accuracy    <       0.00021939 Ry

     iteration #205     ecut=    80.00 Ry     beta= 0.70
     Davidson diagonalization with overlap
     ethr =  7.76E-09,  avg # of iterations =  2.8

     negative rho (up, down):  5.900E-04 0.000E+00

     total cpu time spent up to now is      280.7 secs

     total energy              =    -293.94840099 Ry
     estimated scf accuracy    <       0.00064595 Ry

     iteration #206     ecut=    80.00 Ry     beta= 0.70
     Davidson diagonalization with overlap
     ethr =  7.76E-09,  avg # of iterations =  1.0

     negative rho (up, down):  5.900E-04 0.000E+00

     total cpu time spent up to now is      282.0 secs

     total energy              =    -293.94840220 Ry
     estimated scf accuracy    <       0.00065092 Ry

     iteration #207     ecut=    80.00 Ry     beta= 0.70
     Davidson diagonalization with overlap
     ethr =  7.76E-09,  avg # of iterations =  1.0

     negative rho (up, down):  5.900E-04 0.000E+00

     total cpu time spent up to now is      283.2 secs

     total energy              =    -293.94839829 Ry
     estimated scf accuracy    <       0.00066305 Ry

     iteration #208     ecut=    80.00 Ry     beta= 0.70
     Davidson diagonalization with overlap
     ethr =  7.76E-09,  avg # of iterations =  3.0

     negative rho (up, down):  5.900E-04 0.000E+00

     total cpu time spent up to now is      284.6 secs

     total energy              =    -293.94839760 Ry
     estimated scf accuracy    <       0.00041201 Ry

     iteration #209     ecut=    80.00 Ry     beta= 0.70
     Davidson diagonalization with overlap
     ethr =  7.76E-09,  avg # of iterations =  1.0

     negative rho (up, down):  5.900E-04 0.000E+00

     total cpu time spent up to now is      285.8 secs

     total energy              =    -293.94839575 Ry
     estimated scf accuracy    <       0.00040705 Ry

     iteration #210     ecut=    80.00 Ry     beta= 0.70
     Davidson diagonalization with overlap
     ethr =  7.76E-09,  avg # of iterations =  2.9

     negative rho (up, down):  5.900E-04 0.000E+00

     total cpu time spent up to now is      287.2 secs

     total energy              =    -293.94839588 Ry
     estimated scf accuracy    <       0.00011640 Ry

     iteration #211     ecut=    80.00 Ry     beta= 0.70
     Davidson diagonalization with overlap
     ethr =  7.76E-09,  avg # of iterations =  1.0

     negative rho (up, down):  5.900E-04 0.000E+00

     total cpu time spent up to now is      288.4 secs

     total energy              =    -293.94839549 Ry
     estimated scf accuracy    <       0.00011228 Ry

     iteration #212     ecut=    80.00 Ry     beta= 0.70
     Davidson diagonalization with overlap
     ethr =  7.76E-09,  avg # of iterations =  1.0

     negative rho (up, down):  5.900E-04 0.000E+00

     total cpu time spent up to now is      289.6 secs

     total energy              =    -293.94839542 Ry
     estimated scf accuracy    <       0.00010874 Ry

     iteration #213     ecut=    80.00 Ry     beta= 0.70
     Davidson diagonalization with overlap
     ethr =  7.76E-09,  avg # of iterations =  1.0

     negative rho (up, down):  5.900E-04 0.000E+00

     total cpu time spent up to now is      290.8 secs

     total energy              =    -293.94839429 Ry
     estimated scf accuracy    <       0.00010695 Ry

     iteration #214     ecut=    80.00 Ry     beta= 0.70
     Davidson diagonalization with overlap
     ethr =  7.76E-09,  avg # of iterations =  2.9

     negative rho (up, down):  5.900E-04 0.000E+00

     total cpu time spent up to now is      292.2 secs

     total energy              =    -293.94839544 Ry
     estimated scf accuracy    <       0.00001281 Ry

     iteration #215     ecut=    80.00 Ry     beta= 0.70
     Davidson diagonalization with overlap
     ethr =  7.76E-09,  avg # of iterations =  1.1

     negative rho (up, down):  5.900E-04 0.000E+00

     total cpu time spent up to now is      293.4 secs

     total energy              =    -293.94839519 Ry
     estimated scf accuracy    <       0.00001149 Ry

     iteration #216     ecut=    80.00 Ry     beta= 0.70
     Davidson diagonalization with overlap
     ethr =  7.76E-09,  avg # of iterations =  2.8

     negative rho (up, down):  5.900E-04 0.000E+00

     total cpu time spent up to now is      294.8 secs

     total energy              =    -293.94839575 Ry
     estimated scf accuracy    <       0.00005074 Ry

     iteration #217     ecut=    80.00 Ry     beta= 0.70
     Davidson diagonalization with overlap
     ethr =  7.76E-09,  avg # of iterations =  1.0

     negative rho (up, down):  5.900E-04 0.000E+00

     total cpu time spent up to now is      296.0 secs

     total energy              =    -293.94839579 Ry
     estimated scf accuracy    <       0.00004980 Ry

     iteration #218     ecut=    80.00 Ry     beta= 0.70
     Davidson diagonalization with overlap
     ethr =  7.76E-09,  avg # of iterations =  1.0

     negative rho (up, down):  5.900E-04 0.000E+00

     total cpu time spent up to now is      297.2 secs

     total energy              =    -293.94839580 Ry
     estimated scf accuracy    <       0.00004954 Ry

     iteration #219     ecut=    80.00 Ry     beta= 0.70
     Davidson diagonalization with overlap
     ethr =  7.76E-09,  avg # of iterations =  1.0

     negative rho (up, down):  5.900E-04 0.000E+00

     total cpu time spent up to now is      298.5 secs

     total energy              =    -293.94839570 Ry
     estimated scf accuracy    <       0.00004935 Ry

     iteration #220     ecut=    80.00 Ry     beta= 0.70
     Davidson diagonalization with overlap
     ethr =  7.76E-09,  avg # of iterations =  1.0

     negative rho (up, down):  5.900E-04 0.000E+00

     total cpu time spent up to now is      299.7 secs

     total energy              =    -293.94839557 Ry
     estimated scf accuracy    <       0.00004770 Ry

     iteration #221     ecut=    80.00 Ry     beta= 0.70
     Davidson diagonalization with overlap
     ethr =  7.76E-09,  avg # of iterations =  1.1

     negative rho (up, down):  5.900E-04 0.000E+00

     total cpu time spent up to now is      300.9 secs

     total energy              =    -293.94839562 Ry
     estimated scf accuracy    <       0.00004550 Ry

     iteration #222     ecut=    80.00 Ry     beta= 0.70
     Davidson diagonalization with overlap
     ethr =  7.76E-09,  avg # of iterations =  1.0

     negative rho (up, down):  5.900E-04 0.000E+00

     total cpu time spent up to now is      302.1 secs

     total energy              =    -293.94839578 Ry
     estimated scf accuracy    <       0.00004519 Ry

     iteration #223     ecut=    80.00 Ry     beta= 0.70
     Davidson diagonalization with overlap
     ethr =  7.76E-09,  avg # of iterations =  1.0

     negative rho (up, down):  5.900E-04 0.000E+00

     total cpu time spent up to now is      303.4 secs

     total energy              =    -293.94839572 Ry
     estimated scf accuracy    <       0.00004550 Ry

     iteration #224     ecut=    80.00 Ry     beta= 0.70
     Davidson diagonalization with overlap
     ethr =  7.76E-09,  avg # of iterations =  1.0

     negative rho (up, down):  5.899E-04 0.000E+00

     total cpu time spent up to now is      304.6 secs

     total energy              =    -293.94839452 Ry
     estimated scf accuracy    <       0.00004450 Ry

     iteration #225     ecut=    80.00 Ry     beta= 0.70
     Davidson diagonalization with overlap
     ethr =  7.76E-09,  avg # of iterations =  8.0

     negative rho (up, down):  5.900E-04 0.000E+00

     total cpu time spent up to now is      306.7 secs

     total energy              =    -293.94839542 Ry
     estimated scf accuracy    <       0.00016284 Ry

     iteration #226     ecut=    80.00 Ry     beta= 0.70
     Davidson diagonalization with overlap
     ethr =  7.76E-09,  avg # of iterations =  8.2

     negative rho (up, down):  5.900E-04 0.000E+00

     total cpu time spent up to now is      308.9 secs

     total energy              =    -293.94838971 Ry
     estimated scf accuracy    <       0.00092790 Ry

     iteration #227     ecut=    80.00 Ry     beta= 0.70
     Davidson diagonalization with overlap
     ethr =  7.76E-09,  avg # of iterations =  4.8

     negative rho (up, down):  5.900E-04 0.000E+00

     total cpu time spent up to now is      310.5 secs

     total energy              =    -293.94839548 Ry
     estimated scf accuracy    <       0.00000755 Ry

     iteration #228     ecut=    80.00 Ry     beta= 0.70
     Davidson diagonalization with overlap
     ethr =  7.76E-09,  avg # of iterations =  1.0

     negative rho (up, down):  5.900E-04 0.000E+00

     total cpu time spent up to now is      311.7 secs

     total energy              =    -293.94839550 Ry
     estimated scf accuracy    <       0.00000687 Ry

     iteration #229     ecut=    80.00 Ry     beta= 0.70
     Davidson diagonalization with overlap
     ethr =  7.76E-09,  avg # of iterations =  1.0

     negative rho (up, down):  5.900E-04 0.000E+00

     total cpu time spent up to now is      313.0 secs

     total energy              =    -293.94839551 Ry
     estimated scf accuracy    <       0.00000637 Ry

     iteration #230     ecut=    80.00 Ry     beta= 0.70
     Davidson diagonalization with overlap
     ethr =  7.76E-09,  avg # of iterations =  1.0

     negative rho (up, down):  5.900E-04 0.000E+00

     total cpu time spent up to now is      314.2 secs

     total energy              =    -293.94839560 Ry
     estimated scf accuracy    <       0.00000592 Ry

     iteration #231     ecut=    80.00 Ry     beta= 0.70
     Davidson diagonalization with overlap
     ethr =  7.76E-09,  avg # of iterations =  1.1

     negative rho (up, down):  5.900E-04 0.000E+00

     total cpu time spent up to now is      315.4 secs

     total energy              =    -293.94839551 Ry
     estimated scf accuracy    <       0.00000578 Ry

     iteration #232     ecut=    80.00 Ry     beta= 0.70
     Davidson diagonalization with overlap
     ethr =  7.76E-09,  avg # of iterations =  1.0

     negative rho (up, down):  5.900E-04 0.000E+00

     total cpu time spent up to now is      316.6 secs

     total energy              =    -293.94839550 Ry
     estimated scf accuracy    <       0.00000479 Ry

     iteration #233     ecut=    80.00 Ry     beta= 0.70
     Davidson diagonalization with overlap
     ethr =  7.49E-09,  avg # of iterations =  1.0

     negative rho (up, down):  5.900E-04 0.000E+00

     total cpu time spent up to now is      317.8 secs

     total energy              =    -293.94839545 Ry
     estimated scf accuracy    <       0.00000444 Ry

     iteration #234     ecut=    80.00 Ry     beta= 0.70
     Davidson diagonalization with overlap
     ethr =  6.94E-09,  avg # of iterations =  3.0

     negative rho (up, down):  5.900E-04 0.000E+00

     total cpu time spent up to now is      319.2 secs

     total energy              =    -293.94839566 Ry
     estimated scf accuracy    <       0.00000956 Ry

     iteration #235     ecut=    80.00 Ry     beta= 0.70
     Davidson diagonalization with overlap
     ethr =  6.94E-09,  avg # of iterations =  1.0

     negative rho (up, down):  5.900E-04 0.000E+00

     total cpu time spent up to now is      320.4 secs

     total energy              =    -293.94839562 Ry
     estimated scf accuracy    <       0.00000961 Ry

     iteration #236     ecut=    80.00 Ry     beta= 0.70
     Davidson diagonalization with overlap
     ethr =  6.94E-09,  avg # of iterations =  1.0

     negative rho (up, down):  5.900E-04 0.000E+00

     total cpu time spent up to now is      321.6 secs

     total energy              =    -293.94839562 Ry
     estimated scf accuracy    <       0.00000938 Ry

     iteration #237     ecut=    80.00 Ry     beta= 0.70
     Davidson diagonalization with overlap
     ethr =  6.94E-09,  avg # of iterations =  1.0

     negative rho (up, down):  5.900E-04 0.000E+00

     total cpu time spent up to now is      322.9 secs

     total energy              =    -293.94839562 Ry
     estimated scf accuracy    <       0.00000934 Ry

     iteration #238     ecut=    80.00 Ry     beta= 0.70
     Davidson diagonalization with overlap
     ethr =  6.94E-09,  avg # of iterations =  1.0

     negative rho (up, down):  5.900E-04 0.000E+00

     total cpu time spent up to now is      324.1 secs

     total energy              =    -293.94839565 Ry
     estimated scf accuracy    <       0.00000931 Ry

     iteration #239     ecut=    80.00 Ry     beta= 0.70
     Davidson diagonalization with overlap
     ethr =  6.94E-09,  avg # of iterations =  1.0

     negative rho (up, down):  5.900E-04 0.000E+00

     total cpu time spent up to now is      325.3 secs

     total energy              =    -293.94839563 Ry
     estimated scf accuracy    <       0.00000943 Ry

     iteration #240     ecut=    80.00 Ry     beta= 0.70
     Davidson diagonalization with overlap
     ethr =  6.94E-09,  avg # of iterations =  1.0

     negative rho (up, down):  5.900E-04 0.000E+00

     total cpu time spent up to now is      326.5 secs

     total energy              =    -293.94839565 Ry
     estimated scf accuracy    <       0.00000916 Ry

     iteration #241     ecut=    80.00 Ry     beta= 0.70
     Davidson diagonalization with overlap
     ethr =  6.94E-09,  avg # of iterations =  1.0

     negative rho (up, down):  5.900E-04 0.000E+00

     total cpu time spent up to now is      327.7 secs

     total energy              =    -293.94839566 Ry
     estimated scf accuracy    <       0.00000921 Ry

     iteration #242     ecut=    80.00 Ry     beta= 0.70
     Davidson diagonalization with overlap
     ethr =  6.94E-09,  avg # of iterations =  1.0

     negative rho (up, down):  5.895E-04 0.000E+00

     total cpu time spent up to now is      328.9 secs

     total energy              =    -293.94839225 Ry
     estimated scf accuracy    <       0.00000924 Ry

     iteration #243     ecut=    80.00 Ry     beta= 0.70
     Davidson diagonalization with overlap
     c_bands:  1 eigenvalues not converged
     ethr =  6.94E-09,  avg # of iterations = 11.0

     negative rho (up, down):  5.899E-04 0.000E+00

     total cpu time spent up to now is      331.6 secs

     total energy              =    -293.94850735 Ry
     estimated scf accuracy    <       0.03791090 Ry

     iteration #244     ecut=    80.00 Ry     beta= 0.70
     Davidson diagonalization with overlap
     c_bands:  1 eigenvalues not converged
     ethr =  6.94E-09,  avg # of iterations = 10.6

     negative rho (up, down):  5.900E-04 0.000E+00

     total cpu time spent up to now is      334.0 secs

     total energy              =    -293.94850914 Ry
     estimated scf accuracy    <       0.01842361 Ry

     iteration #245     ecut=    80.00 Ry     beta= 0.70
     Davidson diagonalization with overlap
     ethr =  6.94E-09,  avg # of iterations =  4.0

     negative rho (up, down):  5.900E-04 0.000E+00

     total cpu time spent up to now is      335.5 secs

     total energy              =    -293.94850396 Ry
     estimated scf accuracy    <       0.01481105 Ry

     iteration #246     ecut=    80.00 Ry     beta= 0.70
     Davidson diagonalization with overlap
     ethr =  6.94E-09,  avg # of iterations =  1.0

     negative rho (up, down):  5.900E-04 0.000E+00

     total cpu time spent up to now is      336.7 secs

     total energy              =    -293.94850053 Ry
     estimated scf accuracy    <       0.01476892 Ry

     iteration #247     ecut=    80.00 Ry     beta= 0.70
     Davidson diagonalization with overlap
     ethr =  6.94E-09,  avg # of iterations =  1.0

     negative rho (up, down):  5.900E-04 0.000E+00

     total cpu time spent up to now is      337.9 secs

     total energy              =    -293.94850013 Ry
     estimated scf accuracy    <       0.01473110 Ry

     iteration #248     ecut=    80.00 Ry     beta= 0.70
     Davidson diagonalization with overlap
     ethr =  6.94E-09,  avg # of iterations =  1.0

     negative rho (up, down):  5.900E-04 0.000E+00

     total cpu time spent up to now is      339.1 secs

     total energy              =    -293.94849867 Ry
     estimated scf accuracy    <       0.01470953 Ry

     iteration #249     ecut=    80.00 Ry     beta= 0.70
     Davidson diagonalization with overlap
     ethr =  6.94E-09,  avg # of iterations =  2.2

     negative rho (up, down):  5.900E-04 0.000E+00

     total cpu time spent up to now is      340.4 secs

     total energy              =    -293.94850049 Ry
     estimated scf accuracy    <       0.01343486 Ry

     iteration #250     ecut=    80.00 Ry     beta= 0.70
     Davidson diagonalization with overlap
     ethr =  6.94E-09,  avg # of iterations =  1.0

     negative rho (up, down):  5.900E-04 0.000E+00

     total cpu time spent up to now is      341.6 secs

     total energy              =    -293.94849965 Ry
     estimated scf accuracy    <       0.01342549 Ry

     iteration #251     ecut=    80.00 Ry     beta= 0.70
     Davidson diagonalization with overlap
     ethr =  6.94E-09,  avg # of iterations =  1.0

     negative rho (up, down):  5.902E-04 0.000E+00

     total cpu time spent up to now is      342.8 secs

     total energy              =    -293.94877451 Ry
     estimated scf accuracy    <       0.01341161 Ry

     iteration #252     ecut=    80.00 Ry     beta= 0.70
     Davidson diagonalization with overlap
     ethr =  6.94E-09,  avg # of iterations =  9.9

     negative rho (up, down):  5.905E-04 0.000E+00

     total cpu time spent up to now is      345.9 secs

     total energy              =    -293.94904341 Ry
     estimated scf accuracy    <       0.06320345 Ry

     iteration #253     ecut=    80.00 Ry     beta= 0.70
     Davidson diagonalization with overlap
     ethr =  6.94E-09,  avg # of iterations =  4.1

     negative rho (up, down):  5.905E-04 0.000E+00

     total cpu time spent up to now is      347.6 secs

     total energy              =    -293.94885472 Ry
     estimated scf accuracy    <       0.07135283 Ry

     iteration #254     ecut=    80.00 Ry     beta= 0.70
     Davidson diagonalization with overlap
     ethr =  6.94E-09,  avg # of iterations =  8.3

     negative rho (up, down):  5.906E-04 0.000E+00

     total cpu time spent up to now is      349.7 secs

     total energy              =    -293.94889679 Ry
     estimated scf accuracy    <       0.05534202 Ry

     iteration #255     ecut=    80.00 Ry     beta= 0.70
     Davidson diagonalization with overlap
     ethr =  6.94E-09,  avg # of iterations =  2.9

     negative rho (up, down):  5.907E-04 0.000E+00

     total cpu time spent up to now is      351.0 secs

     total energy              =    -293.94877965 Ry
     estimated scf accuracy    <       0.05796703 Ry

     iteration #256     ecut=    80.00 Ry     beta= 0.70
     Davidson diagonalization with overlap
     ethr =  6.94E-09,  avg # of iterations =  6.3

     negative rho (up, down):  5.905E-04 0.000E+00

     total cpu time spent up to now is      352.9 secs

     total energy              =    -293.94852281 Ry
     estimated scf accuracy    <       0.04730273 Ry

     iteration #257     ecut=    80.00 Ry     beta= 0.70
     Davidson diagonalization with overlap
     ethr =  6.94E-09,  avg # of iterations =  9.3

     negative rho (up, down):  5.901E-04 0.000E+00

     total cpu time spent up to now is      355.3 secs

     total energy              =    -293.94828571 Ry
     estimated scf accuracy    <       0.02100498 Ry

     iteration #258     ecut=    80.00 Ry     beta= 0.70
     Davidson diagonalization with overlap
     c_bands:  1 eigenvalues not converged
     ethr =  6.94E-09,  avg # of iterations =  9.7

     negative rho (up, down):  5.900E-04 0.000E+00

     total cpu time spent up to now is      358.4 secs

     total energy              =    -293.94839938 Ry
     estimated scf accuracy    <       0.00057747 Ry

     iteration #259     ecut=    80.00 Ry     beta= 0.70
     Davidson diagonalization with overlap
     ethr =  6.94E-09,  avg # of iterations =  9.0

     negative rho (up, down):  5.900E-04 0.000E+00

     total cpu time spent up to now is      360.9 secs

     total energy              =    -293.94841760 Ry
     estimated scf accuracy    <       0.00499111 Ry

     iteration #260     ecut=    80.00 Ry     beta= 0.70
     Davidson diagonalization with overlap
     ethr =  6.94E-09,  avg # of iterations =  7.0

     negative rho (up, down):  5.900E-04 0.000E+00

     total cpu time spent up to now is      363.2 secs

     total energy              =    -293.94838526 Ry
     estimated scf accuracy    <       0.00347415 Ry

     iteration #261     ecut=    80.00 Ry     beta= 0.70
     Davidson diagonalization with overlap
     ethr =  6.94E-09,  avg # of iterations =  7.0

     negative rho (up, down):  5.900E-04 0.000E+00

     total cpu time spent up to now is      365.0 secs

     total energy              =    -293.94839505 Ry
     estimated scf accuracy    <       0.00030941 Ry

     iteration #262     ecut=    80.00 Ry     beta= 0.70
     Davidson diagonalization with overlap
     ethr =  6.94E-09,  avg # of iterations =  3.3

     negative rho (up, down):  5.900E-04 0.000E+00

     total cpu time spent up to now is      366.5 secs

     total energy              =    -293.94839492 Ry
     estimated scf accuracy    <       0.00005434 Ry

     iteration #263     ecut=    80.00 Ry     beta= 0.70
     Davidson diagonalization with overlap
     ethr =  6.94E-09,  avg # of iterations =  5.6

     negative rho (up, down):  5.900E-04 0.000E+00

     total cpu time spent up to now is      368.1 secs

     total energy              =    -293.94839553 Ry
     estimated scf accuracy    <       0.00000111 Ry

     iteration #264     ecut=    80.00 Ry     beta= 0.70
     Davidson diagonalization with overlap
     ethr =  1.74E-09,  avg # of iterations =  4.2

     negative rho (up, down):  5.900E-04 0.000E+00

     total cpu time spent up to now is      369.5 secs

     End of self-consistent calculation

          k = 0.0000 0.0000 0.0000 ( 27729 PWs)   bands (ev):

   -22.7927 -21.2335 -18.8565 -15.6183 -14.4585 -14.4551 -14.3943 -14.3913
   -13.9459 -13.9454 -12.8373 -12.8353 -11.8371  -9.3822  -9.3772  -9.3431
    -9.3392  -8.2152  -8.2134  -8.1811  -8.0293  -7.6918  -6.9313  -6.0998
    -5.1979  -4.8309  -3.9643  -3.3900  -3.3860  -3.1677  -1.9155  -1.8382

          k = 0.0000 0.2000 0.0000 ( 27697 PWs)   bands (ev):

   -22.4322 -20.8836 -18.5336 -17.2393 -16.0315 -15.3643 -14.8256 -14.2478
   -13.5941 -12.5626 -11.7640 -11.5875 -11.3411 -10.3280  -9.9358  -8.9546
    -8.6740  -8.6635  -8.1712  -8.0517  -7.9591  -7.7344  -7.0930  -7.0837
    -6.2432  -4.9049  -4.3696  -4.0646  -3.1263  -3.0994  -1.8061  -1.6409

          k = 0.0000 0.4000 0.0000 ( 27646 PWs)   bands (ev):

   -21.3594 -19.8483 -19.6052 -18.1815 -17.5983 -16.1963 -14.7184 -14.1811
   -12.8902 -11.9981 -11.5734 -10.5311 -10.4640 -10.3344  -9.6296  -9.6020
    -9.5907  -8.7342  -8.4171  -8.3410  -7.9745  -7.9091  -7.3286  -6.4702
    -6.2936  -6.1900  -5.7372  -4.8740  -2.5874  -2.5642  -2.1880  -1.8735

          k = 0.2000 0.2000 0.0000 ( 27646 PWs)   bands (ev):

   -22.0735 -20.5353 -18.2110 -16.9656 -16.9619 -15.9375 -15.9357 -14.9680
   -12.6140 -12.6085 -12.4086 -10.4445 -10.4430 -10.4213  -9.8340  -9.3149
    -9.3108  -8.8582  -8.8555  -8.3339  -7.3499  -7.3469  -7.2065  -7.1166
    -5.8526  -5.6280  -4.4994  -3.7959  -2.9618  -2.9574  -2.0841  -1.8107

          k = 0.2000 0.4000 0.0000 ( 27651 PWs)   bands (ev):

   -21.0072 -19.5111 -19.2726 -17.9137 -17.3301 -16.3112 -16.1718 -14.0908
   -13.8948 -13.1491 -12.4253 -12.1972 -10.4009 -10.2865  -9.9541  -9.5233
    -8.3664  -8.3346  -8.0276  -7.5114  -7.4424  -6.9640  -6.8481  -6.4898
    -6.3222  -6.1816  -4.9562  -4.6131  -2.4981  -2.4711  -2.4182  -2.1942

          k = 0.4000 0.4000 0.0000 ( 27622 PWs)   bands (ev):

   -19.9671 -18.5617 -18.3134 -18.3099 -17.2007 -17.1991 -17.1750 -15.1960
   -14.6075 -13.5194 -13.5145 -13.0009 -12.5102 -10.2962 -10.2939  -9.9021
    -8.7390  -7.3411  -7.3395  -6.1462  -5.9890  -5.9434  -5.9429  -5.8464
    -5.8398  -5.6310  -4.6747  -4.0890  -2.7449  -2.6888  -2.1727  -2.1672

          k = 0.2000-0.2000 0.0000 ( 27646 PWs)   bands (ev):

   -22.0734 -20.5390 -18.2333 -16.9889 -16.9449 -16.2667 -15.3491 -14.3944
   -13.3406 -13.0163 -11.7498 -11.7039 -11.6627 -10.7464  -9.0284  -8.9497
    -8.8134  -8.4154  -8.1208  -7.9388  -7.5490  -7.4827  -7.1125  -6.5172
    -6.3764  -5.0590  -5.0306  -3.4109  -3.0584  -2.9579  -2.3161  -1.5856

          k = 0.4000-0.2000 0.0000 ( 27651 PWs)   bands (ev):

   -21.0078 -19.5218 -19.2702 -17.8988 -17.3771 -16.5339 -15.4284 -14.6265
   -14.0084 -12.8035 -12.3084 -12.0339 -11.9971  -9.8345  -9.8061  -9.5355
    -8.7204  -8.3110  -7.6182  -7.2184  -7.1846  -6.5703  -6.4585  -6.4060
    -6.2575  -6.1851  -5.4870  -4.5328  -2.7746  -2.7257  -2.1507  -2.0683

          k = 0.4000-0.4000 0.0000 ( 27622 PWs)   bands (ev):

   -19.9690 -18.5777 -18.3341 -18.2975 -17.5503 -16.9261 -16.8276 -15.5841
   -14.2532 -13.9242 -13.7031 -12.7407 -11.6093 -11.4543 -10.7928  -9.8269
    -7.8122  -7.3779  -7.2063  -6.7612  -6.0517  -5.9194  -5.7289  -5.5830
    -5.2871  -5.2483  -4.9381  -4.3934  -2.9869  -2.7415  -2.4409  -1.7383

     highest occupied level (ev):    -1.5856

!    total energy              =    -293.94839559 Ry
     total all-electron energy =     -1218.173961 Ry
     estimated scf accuracy    <       0.00000006 Ry

     The total energy is the sum of the following terms:
     one-electron contribution =   -4849.07455252 Ry
     hartree contribution      =    2438.89041838 Ry
     xc contribution           =     -73.52700861 Ry
     ewald contribution        =    2288.41564411 Ry
     one-center paw contrib.   =     -98.65289695 Ry

     convergence has been achieved in 264 iterations

     negative rho (up, down):  5.900E-04 0.000E+00

     Forces acting on atoms (cartesian axes, Ry/au):

     atom    1 type  1   force =     0.00000000    0.00000000   -0.00036383
     atom    2 type  1   force =    -0.00002437   -0.00002437   -0.00015848
     atom    3 type  1   force =     0.00000000    0.00000000   -0.00040352
     atom    4 type  1   force =     0.00002437    0.00002437   -0.00015848
     atom    5 type  1   force =     0.00000000    0.00000000    0.00043675
     atom    6 type  1   force =    -0.00000217    0.00000217    0.00028592
     atom    7 type  1   force =     0.00000000    0.00000000    0.00043675
     atom    8 type  1   force =     0.00000217   -0.00000217    0.00028592
     atom    9 type  1   force =     0.00000000    0.00000000   -0.00011227
     atom   10 type  1   force =     0.00000104    0.00000104   -0.00036118
     atom   11 type  1   force =     0.00000000    0.00000000   -0.00011220
     atom   12 type  1   force =    -0.00000104   -0.00000104   -0.00036118
     atom   13 type  1   force =     0.00000000    0.00000000    0.00004547
     atom   14 type  1   force =    -0.00000134    0.00000134    0.00024743
     atom   15 type  1   force =     0.00000000    0.00000000    0.00004547
     atom   16 type  1   force =     0.00000134   -0.00000134    0.00024743

     Total force =     0.001143     Total SCF correction =     0.000672
     SCF correction compared to forces is large: reduce conv_thr to get better values


     Computing stress (Cartesian axis) and pressure


     negative rho (up, down):  5.900E-04 0.000E+00
          total   stress  (Ry/bohr**3)                   (kbar)     P=      -30.93
  -0.00031570   0.00018559   0.00000000          -46.44       27.30        0.00
   0.00018559  -0.00031570   0.00000000           27.30      -46.44        0.00
   0.00000000   0.00000000   0.00000072            0.00        0.00        0.11


     Writing all to output data dir ./c2_qe.save/ :
     XML data file, charge density, pseudopotentials, collected wavefunctions

     init_run     :      1.49s CPU      1.60s WALL (       1 calls)
     electrons    :    338.27s CPU    367.89s WALL (       1 calls)
     forces       :      0.27s CPU      0.28s WALL (       1 calls)
     stress       :      0.88s CPU      0.89s WALL (       1 calls)

     Called by init_run:
     wfcinit      :      0.80s CPU      0.89s WALL (       1 calls)
     potinit      :      0.10s CPU      0.10s WALL (       1 calls)
     hinit0       :      0.54s CPU      0.54s WALL (       1 calls)

     Called by electrons:
     c_bands      :    265.77s CPU    288.15s WALL (     264 calls)
     sum_band     :     45.17s CPU     50.94s WALL (     264 calls)
     v_of_rho     :      4.28s CPU      5.24s WALL (     265 calls)
     newd         :      3.79s CPU      3.96s WALL (     265 calls)
     PAW_pot      :     17.47s CPU     17.56s WALL (     265 calls)
     mix_rho      :      1.59s CPU      1.70s WALL (     264 calls)

     Called by c_bands:
     init_us_2    :      8.39s CPU      8.57s WALL (    4779 calls)
     cegterg      :    251.12s CPU    273.19s WALL (    2376 calls)

     Called by *egterg:
     cdiaghg      :     19.01s CPU     19.30s WALL (    8384 calls)
     h_psi        :    171.50s CPU    192.79s WALL (    8393 calls)
     s_psi        :     27.38s CPU     27.65s WALL (    8393 calls)
     g_psi        :      0.58s CPU      0.58s WALL (    6008 calls)

     Called by h_psi:
     h_psi:calbec :     20.05s CPU     20.67s WALL (    8393 calls)
     vloc_psi     :    122.04s CPU    142.44s WALL (    8393 calls)
                                        0.00s GPU  (    8393 calls)
     add_vuspsi   :     27.72s CPU     28.00s WALL (    8393 calls)

     General routines
     calbec       :     27.83s CPU     28.61s WALL (   10922 calls)
     fft          :      2.56s CPU      3.73s WALL (    2940 calls)
     ffts         :      0.16s CPU      0.30s WALL (     264 calls)
     fftw         :    134.16s CPU    157.12s WALL (  407150 calls)

     Parallel routines

     PWSCF        :    341.08s CPU    371.03s WALL


   This run was terminated on:  21:20:15  25Jul2026            

=------------------------------------------------------------------------------=
   JOB DONE.
=------------------------------------------------------------------------------=
