
     Program PWSCF v.7.5 starts on 25Jul2026 at 21:11:38 

     This program is part of the open-source Quantum ESPRESSO suite
     for quantum simulation of materials; please cite
         "P. Giannozzi et al., J. Phys.:Condens. Matter 21 395502 (2009);
         "P. Giannozzi et al., J. Phys.:Condens. Matter 29 465901 (2017);
         "P. Giannozzi et al., J. Chem. Phys. 152 154105 (2020);
          URL http://www.quantum-espresso.org", 
     in publications or presentations arising from this work. More details at
     http://www.quantum-espresso.org/quote

     Parallel version (MPI & OpenMP), running on      10 processor cores
     Number of MPI processes:                10
     Threads/MPI process:                     1

     MPI processes distributed on     1 nodes
     213755 MiB available memory on the printing compute node when the environment starts

     Reading input from espresso.pwi
Warning: card &CELL ignored
Warning: card &FCP ignored
Warning: card &RISM ignored

     Current dimensions of program PWSCF are:
     Max number of different atomic species (ntypx) = 10
     Max number of k-points (npk) =  40000
     Max angular momentum in pseudopotentials (lmaxx) =  4
     file C.pbe-n-kjpaw_psl.1.0.0.UPF: wavefunction(s)  2S 2P renormalized

     R & G space division:  proc/nbgrp/npool/nimage =      10
     Subspace diagonalization in iterative solution of the eigenvalue problem:
     a serial algorithm will be used


     Parallelization info
     --------------------
     sticks:   dense  smooth     PW     G-vecs:    dense   smooth      PW
     Min         118     118     33                22132    22132    3277
     Max         120     120     34                22140    22140    3291
     Sum        1185    1185    333               221347   221347   32857

     Using Slab Decomposition



     bravais-lattice index     =            0
     lattice parameter (alat)  =       6.7875  a.u.
     unit-cell volume          =    2288.4037 (a.u.)^3
     number of atoms/cell      =           24
     number of atomic types    =            2
     number of electrons       =        72.00
     number of Kohn-Sham states=           70
     kinetic-energy cutoff     =      80.0000  Ry
     charge density cutoff     =     320.0000  Ry
     scf convergence threshold =      1.0E-06
     mixing beta               =       0.7000
     number of iterations used =            8  plain     mixing
     Exchange-correlation= PBE
                           (   1   4   3   4   0   0   0)

     celldm(1)=   6.787470  celldm(2)=   0.000000  celldm(3)=   0.000000
     celldm(4)=   0.000000  celldm(5)=   0.000000  celldm(6)=   0.000000

     crystal axes: (cart. coord. in units of alat)
               a(1) = (   1.000000   0.000000   0.000000 )  
               a(2) = (  -0.000000   1.000000   0.000000 )  
               a(3) = (   0.000000  -0.000000   7.318279 )  

     reciprocal axes: (cart. coord. in units 2 pi/alat)
               b(1) = (  1.000000  0.000000  0.000000 )  
               b(2) = ( -0.000000  1.000000  0.000000 )  
               b(3) = (  0.000000 -0.000000  0.136644 )  


     PseudoPot. # 1 for C  read from file:
     /lustre07/scratch/tanay11/siesta-qe-notebook-benchmark/pseudo_espresso/C.pbe-n-kjpaw_psl.1.0.0.UPF
     MD5 check sum: 5d2aebdfa2cae82b50a7e79e9516da0f
     Pseudo is Projector augmented-wave + core cor, Zval =  4.0
     Generated using "atomic" code by A. Dal Corso  v.5.1
     Shape of augmentation charge: PSQ
     Using radial grid of 1073 points,  4 beta functions with: 
                l(1) =   0
                l(2) =   0
                l(3) =   1
                l(4) =   1
     Q(r) pseudized with 0 coefficients 


     PseudoPot. # 2 for H  read from file:
     /lustre07/scratch/tanay11/siesta-qe-notebook-benchmark/pseudo_espresso/H.pbe-rrkjus_psl.1.0.0.UPF
     MD5 check sum: f52b6d4d1c606e5624b1dc7b2218f220
     Pseudo is Ultrasoft, Zval =  1.0
     Generated using "atomic" code by A. Dal Corso  v.5.1
     Using radial grid of  929 points,  2 beta functions with: 
                l(1) =   0
                l(2) =   0
     Q(r) pseudized with 0 coefficients 


     atomic species   valence    mass     pseudopotential
     C                 4.00    12.01100     C ( 1.00)
     H                 1.00     1.00800     H ( 1.00)

     No symmetry found



   Cartesian axes

     site n.     atom                  positions (alat units)
         1        C      tau(   1) = (  -0.0313244   0.0233158   2.7764739  )
         2        C      tau(   2) = (   0.2486349   0.2433510   3.0108619  )
         3        C      tau(   3) = (   0.4686864   0.5233069   2.7766913  )
         4        C      tau(   4) = (   0.7486639   0.7433819   3.0108628  )
         5        C      tau(   5) = (  -0.0017609   0.4938130   3.2618544  )
         6        C      tau(   6) = (   0.2476588   0.7443899   3.5095950  )
         7        C      tau(   7) = (   0.4982336  -0.0061935   3.2618588  )
         8        C      tau(   8) = (   0.7476495   0.2444100   3.5095884  )
         9        C      tau(   9) = (  -0.0022000  -0.0057641   3.7583072  )
        10        C      tau(  10) = (   0.2472073   0.2447902   4.0060537  )
        11        C      tau(  11) = (   0.4977994   0.4942323   3.7583171  )
        12        C      tau(  12) = (   0.7472001   0.7448024   4.0060497  )
        13        C      tau(  13) = (  -0.0032636   0.4952055   4.2570068  )
        14        C      tau(  14) = (   0.2766597   0.7151294   4.4913394  )
        15        C      tau(  15) = (   0.4967696  -0.0048336   4.2570945  )
        16        C      tau(  16) = (   0.7767512   0.2152274   4.4913182  )
        17        H      tau(  17) = (   0.2001452   0.7912339   4.7800799  )
        18        H      tau(  18) = (   0.4736875   0.5177251   4.5706451  )
        19        H      tau(  19) = (   0.7005115   0.2914905   4.7800913  )
        20        H      tau(  20) = (   0.9740226   0.0180414   4.5705337  )
        21        H      tau(  21) = (  -0.2285701   0.2203845   2.6968124  )
        22        H      tau(  22) = (   0.0451537  -0.0533591   2.4878732  )
        23        H      tau(  23) = (   0.5446962   0.4471083   2.4878457  )
        24        H      tau(  24) = (   0.2713494   0.7204660   2.6977109  )

     number of k points=    13
                       cart. coord. in units 2pi/alat
        k(    1) = (   0.0000000   0.0000000   0.0000000), wk =   0.0800000
        k(    2) = (   0.0000000   0.2000000   0.0000000), wk =   0.1600000
        k(    3) = (   0.0000000   0.4000000   0.0000000), wk =   0.1600000
        k(    4) = (   0.2000000   0.2000000   0.0000000), wk =   0.1600000
        k(    5) = (   0.2000000   0.4000000   0.0000000), wk =   0.1600000
        k(    6) = (   0.4000000   0.4000000   0.0000000), wk =   0.1600000
        k(    7) = (   0.2000000   0.0000000   0.0000000), wk =   0.1600000
        k(    8) = (   0.4000000   0.0000000   0.0000000), wk =   0.1600000
        k(    9) = (  -0.2000000   0.2000000   0.0000000), wk =   0.1600000
        k(   10) = (  -0.2000000   0.4000000   0.0000000), wk =   0.1600000
        k(   11) = (   0.4000000   0.2000000   0.0000000), wk =   0.1600000
        k(   12) = (   0.4000000  -0.2000000   0.0000000), wk =   0.1600000
        k(   13) = (  -0.4000000   0.4000000   0.0000000), wk =   0.1600000

     Dense  grid:   221347 G-vectors     FFT dimensions: (  40,  40, 288)

     Estimated max dynamical RAM per process >      91.55 MB

     Estimated total dynamical RAM >     915.52 MB

     Check: negative core charge=   -0.000006

     Initial potential from superposition of free atoms

     starting charge      71.9993, renormalised to      72.0000

     negative rho (up, down):  1.387E-04 0.000E+00
     Starting wfcs are   72 randomized atomic wfcs
     Checking if some PAW data can be deallocated... 

     total cpu time spent up to now is        2.4 secs

     per-process dynamical memory:   145.5 Mb

     Self-consistent Calculation

     iteration #  1     ecut=    80.00 Ry     beta= 0.70
     Davidson diagonalization with overlap
     ethr =  1.00E-02,  avg # of iterations =  9.4

     negative rho (up, down):  4.392E-04 0.000E+00

     total cpu time spent up to now is       11.2 secs

     total energy              =    -303.55783939 Ry
     estimated scf accuracy    <       2.01497236 Ry

     iteration #  2     ecut=    80.00 Ry     beta= 0.70
     Davidson diagonalization with overlap
     ethr =  2.80E-03,  avg # of iterations =  8.2

     total cpu time spent up to now is       19.7 secs

     total energy              =    -303.56208733 Ry
     estimated scf accuracy    <       1.05966621 Ry

     iteration #  3     ecut=    80.00 Ry     beta= 0.70
     Davidson diagonalization with overlap
     ethr =  1.47E-03,  avg # of iterations =  8.8

     total cpu time spent up to now is       27.9 secs

     total energy              =    -303.84869740 Ry
     estimated scf accuracy    <       0.61262532 Ry

     iteration #  4     ecut=    80.00 Ry     beta= 0.70
     Davidson diagonalization with overlap
     ethr =  8.51E-04,  avg # of iterations =  7.5

     total cpu time spent up to now is       34.2 secs

     total energy              =    -303.94858382 Ry
     estimated scf accuracy    <       0.09576914 Ry

     iteration #  5     ecut=    80.00 Ry     beta= 0.70
     Davidson diagonalization with overlap
     ethr =  1.33E-04,  avg # of iterations =  7.9

     total cpu time spent up to now is       40.8 secs

     total energy              =    -303.96507909 Ry
     estimated scf accuracy    <       0.00756593 Ry

     iteration #  6     ecut=    80.00 Ry     beta= 0.70
     Davidson diagonalization with overlap
     ethr =  1.05E-05,  avg # of iterations =  9.8

     negative rho (up, down):  3.974E-04 0.000E+00

     total cpu time spent up to now is       48.4 secs

     total energy              =    -303.96586982 Ry
     estimated scf accuracy    <       0.00092973 Ry

     iteration #  7     ecut=    80.00 Ry     beta= 0.70
     Davidson diagonalization with overlap
     ethr =  1.29E-06,  avg # of iterations =  9.4

     negative rho (up, down):  3.687E-04 0.000E+00

     total cpu time spent up to now is       56.1 secs

     total energy              =    -303.96603685 Ry
     estimated scf accuracy    <       0.00008617 Ry

     iteration #  8     ecut=    80.00 Ry     beta= 0.70
     Davidson diagonalization with overlap
     ethr =  1.20E-07,  avg # of iterations =  2.4

     negative rho (up, down):  5.127E-04 0.000E+00

     total cpu time spent up to now is       60.5 secs

     End of self-consistent calculation

          k = 0.0000 0.0000 0.0000 ( 27729 PWs)   bands (ev):

   -19.2344 -18.1631 -16.3207 -13.8389 -11.0513 -10.9389 -10.8546 -10.6841
   -10.6404 -10.5824 -10.2430 -10.1990  -9.9993  -8.1062  -7.3572  -7.2071
    -6.1883  -5.6287  -5.5706  -5.3817  -5.0945  -5.0151  -4.5809  -4.5190
    -4.4050  -4.2324  -4.1049  -3.1592  -3.0266  -1.8669  -1.3859  -1.1823
     0.5557   0.6594   0.8429   1.7703   3.8113   3.8506   4.4311   5.0366
     5.9335   5.9854   6.1834   6.7006   6.7548   6.7818   6.9469   7.3284
     7.4056   7.5270   7.6552   8.0438   8.4580   8.8553   9.0326   9.1890
     9.1894   9.6701   9.8520  10.1906  11.0330  11.3646  11.8260  11.8294
    11.8313  11.9017  12.6681  13.0843  13.6010  13.9629

          k = 0.0000 0.2000 0.0000 ( 27697 PWs)   bands (ev):

   -18.8719 -17.8056 -15.9767 -13.6410 -13.5263 -12.7674 -11.5554 -10.8092
   -10.7713 -10.4147  -9.7571  -8.8564  -8.0364  -7.9415  -7.1138  -6.8610
    -6.5114  -5.6738  -5.5640  -5.4079  -4.8531  -4.7707  -4.6803  -4.3275
    -4.1740  -4.1551  -3.9431  -3.6422  -3.4897  -2.6564  -2.2508  -1.2646
    -0.5014  -0.1063   0.8093   1.1623   4.1645   4.1896   4.8360   5.4592
     6.2748   6.6996   7.2157   7.2678   7.4120   7.5122   7.7300   7.7964
     8.1318   8.2094   8.3089   8.7663   8.8089   9.1909   9.2286   9.7061
     9.8541   9.9385  10.3781  10.7274  11.0303  11.3143  11.5379  11.7933
    11.8113  12.1090  12.1142  12.1684  12.8044  12.9262

          k = 0.0000 0.4000 0.0000 ( 27646 PWs)   bands (ev):

   -17.7929 -16.7449 -16.0268 -15.0254 -14.9671 -13.3849 -12.6437 -11.4587
   -10.2466 -10.0410  -9.0887  -8.2519  -7.8813  -7.1193  -6.8373  -6.7682
    -6.1391  -6.1219  -6.0375  -5.7172  -5.2239  -5.0959  -4.5019  -4.4223
    -4.2225  -3.9636  -3.1984  -2.9953  -2.9818  -2.4690  -2.3239  -2.2186
    -1.9837  -0.8864  -0.7384  -0.1384   5.1553   5.2117   6.1510   6.3419
     6.6373   6.6881   7.2939   7.5032   7.8535   8.3774   8.4197   8.6065
     8.9737   9.3204   9.5243   9.8241   9.9436  10.0900  10.2516  10.4124
    10.6376  10.7144  10.7921  10.9731  11.3833  11.4276  11.4872  11.7088
    11.9182  12.0247  12.3435  12.4466  12.5225  12.6442

          k = 0.2000 0.2000 0.0000 ( 27646 PWs)   bands (ev):

   -18.5115 -17.4519 -15.6426 -13.5001 -13.2415 -13.2199 -12.9044 -12.4632
   -10.9107  -9.8557  -9.3837  -8.3390  -8.1332  -7.9303  -7.2022  -7.1990
    -7.0037  -5.9823  -5.6776  -5.4042  -5.3205  -4.7851  -4.7387  -3.8855
    -3.8674  -3.7520  -3.4294  -3.3369  -3.2133  -2.8514  -2.4568  -1.0323
    -0.7889  -0.3200   1.0513   1.5432   4.4714   4.4910   5.2532   5.8235
     6.5637   7.1829   7.2681   7.3989   7.5028   7.9468   7.9556   8.4334
     8.4572   8.5618   8.9358   9.1332   9.1633   9.6763   9.7107   9.8894
     9.9235  10.6742  10.8131  10.8987  11.0686  11.6764  11.6854  11.6986
    11.9623  12.0275  12.2942  12.3957  12.6060  12.6135

          k = 0.2000 0.4000 0.0000 ( 27651 PWs)   bands (ev):

   -17.4386 -16.4008 -15.6938 -14.7374 -14.6608 -13.3284 -12.6300 -12.4780
   -11.3440 -10.2215  -9.6504  -9.1090  -8.6889  -8.3187  -8.2875  -6.7884
    -6.6167  -6.3914  -5.4285  -4.7890  -4.7322  -4.5511  -4.0330  -3.8341
    -3.5924  -3.5746  -2.8772  -2.7774  -2.7428  -2.2903  -1.9223  -1.8725
    -1.5623  -0.9925   0.4018   0.5839   5.3167   5.3753   6.5776   6.9891
     7.0413   7.1652   7.6226   8.0664   8.3982   8.7099   8.8567   9.0538
     9.1817   9.2830   9.4844   9.5031   9.6842   9.8546  10.1481  10.2887
    10.4719  10.5432  10.5880  10.8913  11.0214  11.1513  11.2926  11.5858
    11.8583  12.2571  12.2843  12.4064  12.4800  12.7301

          k = 0.4000 0.4000 0.0000 ( 27622 PWs)   bands (ev):

   -16.3885 -15.3907 -14.8641 -14.5750 -14.2187 -13.8666 -13.7491 -13.0057
   -12.6098 -11.0367 -10.5126 -10.1255  -9.6681  -9.0306  -8.5271  -7.4568
    -7.3199  -6.7129  -6.4950  -5.1888  -4.2193  -3.7099  -3.5655  -2.2013
    -2.1999  -2.1984  -2.0440  -1.9985  -1.9923  -1.8769  -1.8280  -1.6460
    -1.3001  -0.6126   1.0369   1.0544   6.1282   6.2241   7.5045   7.5443
     7.9358   8.2796   8.5660   8.8270   8.9068   8.9305   9.0287   9.1437
     9.6291   9.7223   9.9978  10.0167  10.0857  10.1683  10.2000  10.3975
    10.4339  10.5034  10.5276  10.5338  10.7856  10.8479  10.9267  10.9847
    11.1218  11.2781  11.3335  11.5068  11.7047  11.7501

          k = 0.2000 0.0000 0.0000 ( 27697 PWs)   bands (ev):

   -18.8719 -17.8056 -15.9767 -13.6410 -13.5263 -12.7674 -11.5554 -10.8092
   -10.7714 -10.4146  -9.7570  -8.8564  -8.0364  -7.9416  -7.1137  -6.8610
    -6.5114  -5.6738  -5.5640  -5.4078  -4.8532  -4.7709  -4.6804  -4.3274
    -4.1739  -4.1550  -3.9431  -3.6423  -3.4897  -2.6565  -2.2506  -1.2647
    -0.5014  -0.1063   0.8093   1.1622   4.1645   4.1896   4.8360   5.4592
     6.2748   6.6995   7.2157   7.2677   7.4121   7.5122   7.7301   7.7964
     8.1320   8.2095   8.3089   8.7664   8.8087   9.1909   9.2281   9.7063
     9.8544   9.9385  10.3779  10.7273  11.0305  11.3143  11.5377  11.7932
    11.8114  12.1093  12.1140  12.1683  12.8043  12.9261

          k = 0.4000 0.0000 0.0000 ( 27646 PWs)   bands (ev):

   -17.7929 -16.7449 -16.0268 -15.0254 -14.9671 -13.3849 -12.6437 -11.4587
   -10.2466 -10.0410  -9.0887  -8.2519  -7.8813  -7.1193  -6.8373  -6.7681
    -6.1391  -6.1219  -6.0375  -5.7172  -5.2239  -5.0959  -4.5018  -4.4224
    -4.2226  -3.9635  -3.1983  -2.9954  -2.9818  -2.4690  -2.3238  -2.2186
    -1.9838  -0.8865  -0.7384  -0.1385   5.1553   5.2117   6.1510   6.3418
     6.6373   6.6880   7.2940   7.5032   7.8534   8.3774   8.4197   8.6067
     8.9738   9.3203   9.5243   9.8242   9.9438  10.0899  10.2516  10.4125
    10.6376  10.7143  10.7924  10.9730  11.3832  11.4278  11.4870  11.7087
    11.9178  12.0245  12.3435  12.4467  12.5225  12.6442

          k =-0.2000 0.2000 0.0000 ( 27646 PWs)   bands (ev):

   -18.5110 -17.4498 -15.6365 -13.3507 -13.3325 -13.2372 -12.7559 -12.0921
   -11.5593 -10.3725  -9.4412  -8.7813  -8.5333  -8.1799  -6.8641  -6.1603
    -6.1005  -5.9223  -5.6005  -5.0968  -4.9256  -4.6781  -4.4930  -4.2578
    -3.8120  -3.6699  -3.5611  -3.4970  -3.0508  -2.7094  -2.4235  -1.2823
    -1.1734  -0.5547   0.3109   0.4583   4.5522   4.6004   5.2844   5.9089
     6.7151   6.7995   7.1706   7.2319   7.4904   7.6934   7.8495   8.5404
     8.6889   8.7823   8.9650   9.1325   9.1423   9.2695   9.6490  10.3629
    10.4481  10.5568  10.8102  10.8304  10.9225  11.4431  11.8408  12.0445
    12.1327  12.1986  12.2248  12.3495  12.4842  12.6979

          k =-0.2000 0.4000 0.0000 ( 27651 PWs)   bands (ev):

   -17.4390 -16.4023 -15.6864 -14.7055 -14.6666 -13.2179 -12.5839 -12.3211
   -11.9496  -9.7835  -9.6342  -9.5033  -9.1074  -8.8007  -7.1728  -7.0849
    -6.7785  -5.8714  -5.5244  -4.7832  -4.6748  -4.1187  -4.0104  -3.7116
    -3.2908  -3.1706  -3.0789  -2.6505  -2.5719  -2.4058  -1.9486  -1.6403
    -1.4381  -1.1858  -0.6587  -0.5436   5.6586   5.6765   6.4163   6.6257
     6.6880   7.1709   7.9201   8.2749   8.3892   8.5584   8.8222   8.9038
     9.0318   9.1972   9.2785   9.5294   9.6703   9.8901  10.2742  10.3454
    10.5446  10.5507  10.8824  10.9740  10.9773  11.1540  11.2123  11.5938
    12.0237  12.0798  12.3898  12.3939  12.5824  12.7385

          k = 0.4000 0.2000 0.0000 ( 27651 PWs)   bands (ev):

   -17.4386 -16.4008 -15.6938 -14.7374 -14.6608 -13.3284 -12.6300 -12.4780
   -11.3440 -10.2215  -9.6504  -9.1090  -8.6889  -8.3187  -8.2875  -6.7884
    -6.6167  -6.3914  -5.4285  -4.7890  -4.7322  -4.5511  -4.0329  -3.8342
    -3.5924  -3.5746  -2.8772  -2.7775  -2.7430  -2.2903  -1.9220  -1.8726
    -1.5624  -0.9926   0.4018   0.5838   5.3167   5.3753   6.5776   6.9891
     7.0413   7.1652   7.6226   8.0662   8.3981   8.7101   8.8567   9.0540
     9.1817   9.2829   9.4846   9.5030   9.6842   9.8547  10.1484  10.2882
    10.4718  10.5432  10.5879  10.8917  11.0214  11.1513  11.2928  11.5857
    11.8583  12.2566  12.2844  12.4064  12.4803  12.7308

          k = 0.4000-0.2000 0.0000 ( 27651 PWs)   bands (ev):

   -17.4390 -16.4023 -15.6864 -14.7055 -14.6666 -13.2180 -12.5839 -12.3211
   -11.9495  -9.7835  -9.6342  -9.5033  -9.1074  -8.8007  -7.1728  -7.0849
    -6.7785  -5.8714  -5.5244  -4.7832  -4.6747  -4.1187  -4.0104  -3.7119
    -3.2907  -3.1703  -3.0789  -2.6504  -2.5719  -2.4061  -1.9485  -1.6403
    -1.4381  -1.1858  -0.6587  -0.5437   5.6586   5.6766   6.4163   6.6257
     6.6879   7.1709   7.9201   8.2750   8.3892   8.5583   8.8222   8.9038
     9.0317   9.1973   9.2785   9.5293   9.6704   9.8901  10.2744  10.3450
    10.5446  10.5513  10.8823  10.9739  10.9771  11.1544  11.2119  11.5939
    12.0238  12.0797  12.3900  12.3939  12.5821  12.7381

          k =-0.4000 0.4000 0.0000 ( 27622 PWs)   bands (ev):

   -16.3952 -15.4193 -14.7011 -14.7006 -14.0445 -13.9722 -13.4632 -13.2849
   -12.8545 -10.8542 -10.4008 -10.1957  -9.6326  -9.2315  -8.4881  -8.2457
    -6.9170  -6.6956  -5.5749  -5.0915  -4.6066  -4.0993  -2.9646  -2.5052
    -2.4653  -2.1929  -1.9785  -1.9043  -1.7690  -1.6868  -1.6384  -1.3054
    -1.0060  -0.4906   0.0649   0.1099   6.6456   6.7009   7.2048   7.2293
     7.6916   7.8366   7.9711   8.3616   8.7865   8.9093   9.5245   9.5438
     9.8154  10.0793  10.0831  10.1039  10.1521  10.2082  10.3288  10.3582
    10.4492  10.4726  10.6307  10.7071  10.7372  10.7558  10.8107  10.9341
    11.0785  11.1366  11.1701  11.4743  11.7312  11.8064

     highest occupied, lowest unoccupied level (ev):     1.7703    3.8113

!    total energy              =    -303.96605373 Ry
     estimated scf accuracy    <       0.00000096 Ry

     The total energy is the sum of the following terms:
     one-electron contribution =   -5593.95373193 Ry
     hartree contribution      =    2821.53375379 Ry
     xc contribution           =     -81.16516211 Ry
     ewald contribution        =    2648.23797411 Ry
     one-center paw contrib.   =     -98.61888759 Ry

     convergence has been achieved in   8 iterations

     negative rho (up, down):  5.127E-04 0.000E+00

     Forces acting on atoms (cartesian axes, Ry/au):

     atom    1 type  1   force =     0.00068341   -0.00067143    0.00047467
     atom    2 type  1   force =     0.00053109   -0.00054284   -0.00013850
     atom    3 type  1   force =     0.00067770   -0.00067002    0.00043019
     atom    4 type  1   force =     0.00053262   -0.00053927   -0.00014043
     atom    5 type  1   force =    -0.00001713   -0.00001415   -0.00080715
     atom    6 type  1   force =    -0.00013140    0.00011572   -0.00049885
     atom    7 type  1   force =    -0.00001755   -0.00000582   -0.00080762
     atom    8 type  1   force =    -0.00013173    0.00011225   -0.00049639
     atom    9 type  1   force =     0.00011951   -0.00011725    0.00050166
     atom   10 type  1   force =    -0.00000096   -0.00000148    0.00081220
     atom   11 type  1   force =     0.00012260   -0.00011992    0.00049322
     atom   12 type  1   force =    -0.00000215    0.00000123    0.00080915
     atom   13 type  1   force =    -0.00055456    0.00054765    0.00013333
     atom   14 type  1   force =    -0.00062778    0.00067639   -0.00044879
     atom   15 type  1   force =    -0.00056848    0.00055804    0.00012046
     atom   16 type  1   force =    -0.00065908    0.00063490   -0.00046200
     atom   17 type  2   force =     0.00031510   -0.00023500    0.00000379
     atom   18 type  2   force =    -0.00039356    0.00046523   -0.00007662
     atom   19 type  2   force =     0.00024171   -0.00029091    0.00000046
     atom   20 type  2   force =    -0.00045865    0.00039823   -0.00005289
     atom   21 type  2   force =     0.00044237   -0.00043383    0.00013777
     atom   22 type  2   force =    -0.00031648    0.00032979    0.00000303
     atom   23 type  2   force =    -0.00023433    0.00024489    0.00001668
     atom   24 type  2   force =     0.00044772   -0.00044237   -0.00000735

     Total force =     0.003564     Total SCF correction =     0.001831
     SCF correction compared to forces is large: reduce conv_thr to get better values


     Computing stress (Cartesian axis) and pressure


     negative rho (up, down):  5.127E-04 0.000E+00
          total   stress  (Ry/bohr**3)                   (kbar)     P=       63.51
   0.00065156  -0.00060955  -0.00001111           95.85      -89.67       -1.63
  -0.00060955   0.00065101   0.00001166          -89.67       95.77        1.72
  -0.00001111   0.00001166  -0.00000743           -1.63        1.72       -1.09


     Writing all to output data dir ./c2_qe.save/ :
     XML data file, charge density, pseudopotentials, collected wavefunctions

     init_run     :      2.24s CPU      2.30s WALL (       1 calls)
     electrons    :     54.42s CPU     58.21s WALL (       1 calls)
     forces       :      0.58s CPU      0.60s WALL (       1 calls)
     stress       :      1.90s CPU      1.91s WALL (       1 calls)

     Called by init_run:
     wfcinit      :      1.48s CPU      1.53s WALL (       1 calls)
     potinit      :      0.14s CPU      0.14s WALL (       1 calls)
     hinit0       :      0.55s CPU      0.55s WALL (       1 calls)

     Called by electrons:
     c_bands      :     49.44s CPU     52.58s WALL (       8 calls)
     sum_band     :      3.89s CPU      4.37s WALL (       8 calls)
     v_of_rho     :      0.16s CPU      0.19s WALL (       9 calls)
     newd         :      0.14s CPU      0.15s WALL (       9 calls)
     PAW_pot      :      0.90s CPU      0.91s WALL (       9 calls)
     mix_rho      :      0.02s CPU      0.03s WALL (       8 calls)

     Called by c_bands:
     init_us_2    :      0.58s CPU      0.59s WALL (     247 calls)
     cegterg      :     48.55s CPU     51.67s WALL (     104 calls)

     Called by *egterg:
     cdiaghg      :      9.81s CPU      9.90s WALL (     929 calls)
     h_psi        :     24.19s CPU     27.13s WALL (     942 calls)
     s_psi        :      3.79s CPU      3.83s WALL (     942 calls)
     g_psi        :      0.10s CPU      0.10s WALL (     825 calls)

     Called by h_psi:
     h_psi:calbec :      3.01s CPU      3.08s WALL (     942 calls)
     vloc_psi     :     16.97s CPU     19.80s WALL (     942 calls)
                                        0.00s GPU  (     942 calls)
     add_vuspsi   :      4.03s CPU      4.06s WALL (     942 calls)

     General routines
     calbec       :      5.13s CPU      5.22s WALL (    1267 calls)
     fft          :      0.62s CPU      0.67s WALL (     124 calls)
     ffts         :      0.01s CPU      0.01s WALL (       8 calls)
     fftw         :     17.82s CPU     20.84s WALL (   53224 calls)

     Parallel routines

     PWSCF        :     59.63s CPU     64.14s WALL


   This run was terminated on:  21:12:42  25Jul2026            

=------------------------------------------------------------------------------=
   JOB DONE.
=------------------------------------------------------------------------------=
