&CONTROL
   calculation      = 'scf'
   prefix           = 'c2_qe'
   pseudo_dir       = 'pseudopotentials/qe'
/
&SYSTEM
   ecutwfc          = 90
   ecutrho          = 360
   ntyp             = 1
   nat              = 2
   ibrav            = 0
/
&ELECTRONS
   electron_maxstep = 200
   conv_thr         = 1e-08
/
&IONS
/
&CELL
/
&FCP
/
&RISM
/
ATOMIC_SPECIES
C 12.011 C.pbe-n-kjpaw_psl.1.0.0.UPF

K_POINTS automatic
12 12 1  0 0 0

CELL_PARAMETERS angstrom
2.46000000000000 0.00000000000000 0.00000000000000
-1.23000000000000 2.13042249330972 0.00000000000000
0.00000000000000 -0.00000000000000 16.00000000000000

ATOMIC_POSITIONS angstrom
C 0.0000000000 0.0000000000 8.0000000000  
C 1.2300000000 0.7101408311 8.0000000000  

