&CONTROL
   calculation      = 'scf'
   tstress          = .true.
   tprnfor          = .true.
   prefix           = 'c2_qe'
   pseudo_dir       = 'pseudopotentials/qe'
/
&SYSTEM
   ecutwfc          = 80
   ecutrho          = 320
   ntyp             = 1
   nat              = 8
   ibrav            = 0
/
&ELECTRONS
   conv_thr         = 1e-08
/
&IONS
/
&CELL
/
&FCP
/
&RISM
/
ATOMIC_SPECIES
C 12.011 C.pbe-n-kjpaw_psl.1.0.0.UPF

K_POINTS automatic
5 5 5  0 0 0

CELL_PARAMETERS angstrom
3.57290215197928 0.00000000000000 0.00000000000000
0.00000000000000 3.57290215197928 0.00000000000000
0.00000000000000 0.00000000000000 3.57290215197928

ATOMIC_POSITIONS angstrom
C 0.0000000000 0.0000000000 0.0000000000  
C 0.8932241979 0.8932241979 0.8932241979  
C -0.0000000000 1.7864510760 1.7864510760  
C 0.8932241979 2.6796779541 2.6796779541  
C 1.7864510760 0.0000000000 1.7864510760  
C 2.6796779541 0.8932241979 2.6796779541  
C 1.7864510760 1.7864510760 0.0000000000  
C 2.6796779541 2.6796779541 0.8932241979  

