&CONTROL
   calculation      = 'scf'
   tstress          = .true.
   tprnfor          = .true.
   prefix           = 'c2_qe'
   pseudo_dir       = 'pseudopotentials/qe'
/
&SYSTEM
   ecutwfc          = 80
   ecutrho          = 320
   assume_isolated  = '2D'
   ntyp             = 1
   nat              = 16
   ibrav            = 0
/
&ELECTRONS
   electron_maxstep = 300
   conv_thr         = 1e-06
   mixing_beta      = 0.1
/
&IONS
/
&CELL
/
&FCP
/
&RISM
/
ATOMIC_SPECIES
C 12.011 C.pbe-n-kjpaw_psl.1.0.0.UPF

K_POINTS automatic
5 5 1  0 0 0

CELL_PARAMETERS angstrom
3.59177426426594 0.00000000000000 0.00000000000000
-0.00000000000000 3.59177426426594 0.00000000000000
0.00000000000000 -0.00000000000000 26.28560496246540

ATOMIC_POSITIONS angstrom
C 0.0000000015 -0.0000000023 10.1036154870  
C 0.8979511406 0.8979511439 10.8837578339  
C 1.7958871306 1.7958871318 10.1036441386  
C 2.6938231251 2.6938231286 10.8837578324  
C 0.0000000011 1.7958871329 11.8124968572  
C 0.8979429274 2.6938313359 12.6915501961  
C 1.7958871316 0.0000000010 11.8124968587  
C 2.6938313336 0.8979429279 12.6915501959  
C -0.0000000022 -0.0000000043 13.5934031535  
C 0.8979436588 0.8979436579 14.4725751273  
C 1.7958871317 1.7958871357 13.5934038058  
C 2.6938306059 2.6938306065 14.4725751255  
C 0.0000000023 1.7958871342 15.4022936864  
C 0.8979386076 2.6938356584 16.1827126668  
C 1.7958871319 0.0000000011 15.4022936855  
C 2.6938356563 0.8979386066 16.1827126677  

