
     Program PWSCF v.7.5 starts on 25Jul2026 at 20:27:17 

     This program is part of the open-source Quantum ESPRESSO suite
     for quantum simulation of materials; please cite
         "P. Giannozzi et al., J. Phys.:Condens. Matter 21 395502 (2009);
         "P. Giannozzi et al., J. Phys.:Condens. Matter 29 465901 (2017);
         "P. Giannozzi et al., J. Chem. Phys. 152 154105 (2020);
          URL http://www.quantum-espresso.org", 
     in publications or presentations arising from this work. More details at
     http://www.quantum-espresso.org/quote

     Parallel version (MPI & OpenMP), running on      10 processor cores
     Number of MPI processes:                10
     Threads/MPI process:                     1

     MPI processes distributed on     1 nodes
     214103 MiB available memory on the printing compute node when the environment starts

     Reading input from espresso.pwi
Warning: card &CELL ignored
Warning: card &FCP ignored
Warning: card &RISM ignored

     Current dimensions of program PWSCF are:
     Max number of different atomic species (ntypx) = 10
     Max number of k-points (npk) =  40000
     Max angular momentum in pseudopotentials (lmaxx) =  4
     file C.pbe-n-kjpaw_psl.1.0.0.UPF: wavefunction(s)  2S 2P renormalized
     Found identity + (  0.0000 -0.5000 -0.5000) symmetry
     This is a supercell, fractional translations are disabled
     Message from routine setup:
     using ibrav=0 with symmetry is DISCOURAGED, use correct ibrav instead

     R & G space division:  proc/nbgrp/npool/nimage =      10
     Subspace diagonalization in iterative solution of the eigenvalue problem:
     a serial algorithm will be used


     Parallelization info
     --------------------
     sticks:   dense  smooth     PW     G-vecs:    dense   smooth      PW
     Min         116     116     34                 2970     2970     462
     Max         117     117     35                 2974     2974     464
     Sum        1161    1161    341                29711    29711    4625

     Using Slab Decomposition



     bravais-lattice index     =            0
     lattice parameter (alat)  =       6.7518  a.u.
     unit-cell volume          =     307.7939 (a.u.)^3
     number of atoms/cell      =            8
     number of atomic types    =            1
     number of electrons       =        32.00
     number of Kohn-Sham states=           48
     kinetic-energy cutoff     =      80.0000  Ry
     charge density cutoff     =     320.0000  Ry
     scf convergence threshold =      1.0E-08
     mixing beta               =       0.7000
     number of iterations used =            8  plain     mixing
     Exchange-correlation= SLA  PW   PBX  PBC
                           (   1   4   3   4   0   0   0)

     celldm(1)=   6.751807  celldm(2)=   0.000000  celldm(3)=   0.000000
     celldm(4)=   0.000000  celldm(5)=   0.000000  celldm(6)=   0.000000

     crystal axes: (cart. coord. in units of alat)
               a(1) = (   1.000000   0.000000   0.000000 )  
               a(2) = (   0.000000   1.000000   0.000000 )  
               a(3) = (   0.000000   0.000000   1.000000 )  

     reciprocal axes: (cart. coord. in units 2 pi/alat)
               b(1) = (  1.000000  0.000000  0.000000 )  
               b(2) = (  0.000000  1.000000  0.000000 )  
               b(3) = (  0.000000  0.000000  1.000000 )  


     PseudoPot. # 1 for C  read from file:
     /lustre07/scratch/tanay11/siesta-qe-notebook-benchmark/pseudo_espresso/C.pbe-n-kjpaw_psl.1.0.0.UPF
     MD5 check sum: 5d2aebdfa2cae82b50a7e79e9516da0f
     Pseudo is Projector augmented-wave + core cor, Zval =  4.0
     Generated using "atomic" code by A. Dal Corso  v.5.1
     Shape of augmentation charge: PSQ
     Using radial grid of 1073 points,  4 beta functions with: 
                l(1) =   0
                l(2) =   0
                l(3) =   1
                l(4) =   1
     Q(r) pseudized with 0 coefficients 


     atomic species   valence    mass     pseudopotential
     C                 4.00    12.01100     C ( 1.00)

     24 Sym. Ops. (no inversion) found



   Cartesian axes

     site n.     atom                  positions (alat units)
         1        C      tau(   1) = (   0.0000000   0.0000000   0.0000000  )
         2        C      tau(   2) = (   0.2499996   0.2499996   0.2499996  )
         3        C      tau(   3) = (  -0.0000000   0.5000000   0.5000000  )
         4        C      tau(   4) = (   0.2499996   0.7500004   0.7500004  )
         5        C      tau(   5) = (   0.5000000   0.0000000   0.5000000  )
         6        C      tau(   6) = (   0.7500004   0.2499996   0.7500004  )
         7        C      tau(   7) = (   0.5000000   0.5000000   0.0000000  )
         8        C      tau(   8) = (   0.7500004   0.7500004   0.2499996  )

     number of k points=    10
                       cart. coord. in units 2pi/alat
        k(    1) = (   0.0000000   0.0000000   0.0000000), wk =   0.0160000
        k(    2) = (   0.0000000   0.0000000   0.2000000), wk =   0.0960000
        k(    3) = (   0.0000000   0.0000000   0.4000000), wk =   0.0960000
        k(    4) = (   0.0000000   0.2000000   0.2000000), wk =   0.1920000
        k(    5) = (   0.0000000   0.2000000   0.4000000), wk =   0.3840000
        k(    6) = (   0.0000000   0.4000000   0.4000000), wk =   0.1920000
        k(    7) = (   0.2000000   0.2000000   0.2000000), wk =   0.1280000
        k(    8) = (   0.2000000   0.2000000   0.4000000), wk =   0.3840000
        k(    9) = (   0.2000000   0.4000000   0.4000000), wk =   0.3840000
        k(   10) = (   0.4000000   0.4000000   0.4000000), wk =   0.1280000

     Dense  grid:    29711 G-vectors     FFT dimensions: (  40,  40,  40)

     Estimated max dynamical RAM per process >       8.42 MB

     Estimated total dynamical RAM >      84.16 MB

     Check: negative core charge=   -0.000014

     Initial potential from superposition of free atoms

     starting charge      31.9997, renormalised to      32.0000
     Starting wfcs are   32 randomized atomic wfcs +   16 random wfcs
     Checking if some PAW data can be deallocated... 

     total cpu time spent up to now is        0.5 secs

     per-process dynamical memory:    87.6 Mb

     Self-consistent Calculation

     iteration #  1     ecut=    80.00 Ry     beta= 0.70
     Davidson diagonalization with overlap
     ethr =  1.00E-02,  avg # of iterations =  6.1

     total cpu time spent up to now is        1.3 secs

     total energy              =    -147.43831771 Ry
     estimated scf accuracy    <       0.46340413 Ry

     iteration #  2     ecut=    80.00 Ry     beta= 0.70
     Davidson diagonalization with overlap
     ethr =  1.45E-03,  avg # of iterations =  1.0

     total cpu time spent up to now is        1.7 secs

     total energy              =    -147.47148521 Ry
     estimated scf accuracy    <       0.00923406 Ry

     iteration #  3     ecut=    80.00 Ry     beta= 0.70
     Davidson diagonalization with overlap
     ethr =  2.89E-05,  avg # of iterations =  2.5

     total cpu time spent up to now is        2.1 secs

     total energy              =    -147.47250693 Ry
     estimated scf accuracy    <       0.00025135 Ry

     iteration #  4     ecut=    80.00 Ry     beta= 0.70
     Davidson diagonalization with overlap
     ethr =  7.85E-07,  avg # of iterations =  3.1

     total cpu time spent up to now is        2.5 secs

     total energy              =    -147.47253125 Ry
     estimated scf accuracy    <       0.00000156 Ry

     iteration #  5     ecut=    80.00 Ry     beta= 0.70
     Davidson diagonalization with overlap
     ethr =  4.88E-09,  avg # of iterations =  2.4

     total cpu time spent up to now is        3.0 secs

     total energy              =    -147.47253246 Ry
     estimated scf accuracy    <       0.00000056 Ry

     iteration #  6     ecut=    80.00 Ry     beta= 0.70
     Davidson diagonalization with overlap
     ethr =  1.75E-09,  avg # of iterations =  1.0

     total cpu time spent up to now is        3.3 secs

     End of self-consistent calculation

          k = 0.0000 0.0000 0.0000 (  3743 PWs)   bands (ev):

    -8.1518   0.5269   0.5269   0.5269   0.5269   0.5269   0.5269   6.9858
     6.9858   6.9858   6.9858   6.9858   6.9858  13.2580  13.2580  13.2580
    18.0229  18.0229  18.0229  18.0229  18.0229  18.0229  18.8471  18.8471
    18.8471  26.4742  29.9875  29.9875  29.9875  29.9876  29.9876  29.9876
    32.4833  36.3828  36.3828  36.3828  36.3829  36.3829  36.3829  39.7992
    39.7992  40.7548  40.7548  40.7548  45.5609  45.5609  45.5609  45.5609

          k = 0.0000 0.0000 0.2000 (  3759 PWs)   bands (ev):

    -7.7843  -2.4515   0.7496   0.7496   0.7496   0.7496   3.8436   6.2812
     6.2812   6.2812   6.2812   7.3435   7.3435  12.0390  12.0390  12.3866
    17.4322  18.5724  19.4281  19.4281  19.4281  19.4281  19.4718  20.3792
    20.3792  26.5944  28.8718  28.8718  29.2230  29.2231  29.2231  29.2231
    33.1062  34.8968  35.3714  35.6084  35.6084  35.6084  35.6085  36.6939
    40.2655  41.6147  41.6147  44.5037  44.5037  44.5037  44.5038  44.6678

          k = 0.0000 0.0000 0.4000 (  3728 PWs)   bands (ev):

    -6.6894  -4.8932   1.2105   1.2106   1.2106   1.2106   5.1736   5.1736
     5.1736   5.1737   7.1859   8.3937   8.3937  10.0483  10.0483  10.1712
    17.4949  17.9820  21.9318  22.6221  22.6222  22.6222  22.6222  23.2733
    23.2733  25.0488  26.3064  26.3064  26.6966  26.6966  26.6966  26.6967
    32.9243  33.9727  34.5798  34.6331  34.6331  34.6331  34.6331  36.0335
    41.6641  43.7018  43.7018  43.7018  43.7018  43.9941  44.1113  44.1113

          k = 0.0000 0.2000 0.2000 (  3727 PWs)   bands (ev):

    -7.4183  -2.1366  -2.1366   0.5703   1.1865   3.7506   3.7507   4.5265
     6.5029   6.5029   6.9962   6.9962   7.5894  10.3346  10.9414  12.7843
    18.6142  18.8911  18.8911  19.5887  20.5941  20.7602  20.7602  20.9060
    22.2403  26.9019  27.4713  27.4713  28.3501  28.8113  28.8113  29.1717
    33.0944  33.5221  34.8228  35.4777  35.4777  35.5184  35.5184  36.6668
    37.1985  40.5452  42.5000  43.0949  43.7812  43.7812  45.9377  45.9377

          k = 0.0000 0.2000 0.4000 (  3699 PWs)   bands (ev):

    -6.3290  -4.5460  -1.2508  -0.0890   2.0510   3.1148   3.9896   4.9762
     6.2014   6.9080   7.4745   7.4841   8.2367   8.9405   9.0569  11.3631
    18.9555  19.3836  20.4808  22.1964  22.6279  23.0194  23.1159  23.2174
    24.9532  25.0258  25.5286  25.8381  26.1719  26.3338  27.4789  28.2818
    31.6023  32.7461  33.3507  34.4257  34.4994  35.3324  35.8061  36.5172
    38.2545  39.8206  41.3271  41.3419  44.7674  44.8915  45.4769  46.3357

          k = 0.0000 0.4000 0.4000 (  3696 PWs)   bands (ev):

    -5.2598  -3.5269  -3.5269  -1.9315   3.1416   4.4354   4.6036   4.6036
     5.7933   5.7933   6.2985   7.2815   9.2250   9.4904   9.4904  11.2805
    20.2309  21.7313  21.8179  22.1130  22.1130  22.1751  22.1752  23.7153
    24.9490  25.8092  25.8092  26.5008  26.5009  26.8495  27.3092  27.6888
    30.4107  33.2397  33.2397  33.3114  34.1707  34.7495  34.7495  35.5485
    37.1291  38.1346  38.7615  38.7615  46.3012  46.4596  46.4596  46.5203

          k = 0.2000 0.2000 0.2000 (  3701 PWs)   bands (ev):

    -7.0541  -1.8462  -1.8462  -1.8462   3.0492   3.0492   3.0492   5.7719
     5.7719   5.7719   7.9198   7.9198   7.9198   8.3945  11.9416  11.9416
    18.8175  18.8175  18.8176  20.5557  20.5557  20.9721  22.7954  22.7954
    22.7954  27.2698  27.2699  27.2699  27.3892  27.7060  27.7060  27.7060
    33.6922  33.9556  33.9557  33.9557  35.7531  35.7531  36.6585  36.6585
    36.6585  38.8120  41.5839  41.5839  41.5839  45.9423  45.9423  45.9423

          k = 0.2000 0.2000 0.4000 (  3732 PWs)   bands (ev):

    -5.9712  -4.2048  -1.1505  -1.1505   1.6279   1.6279   4.4927   5.9441
     5.9441   6.2438   7.9447   7.9448   8.5704   8.8768  10.3323  11.0606
    19.3527  20.0283  20.7017  20.7017  22.4916  22.6205  24.2396  24.2397
    24.4645  25.0128  25.0778  26.1408  26.1408  26.7830  27.5641  27.5641
    31.8494  31.8494  34.0493  34.3237  34.5741  35.3480  36.8241  36.8241
    38.2874  40.0696  40.1328  40.1328  41.3323  42.7215  43.9702  43.9702

          k = 0.2000 0.4000 0.4000 (  3729 PWs)   bands (ev):

    -4.9127  -3.2174  -3.2174  -1.8113   1.1207   2.4685   2.4685   4.0968
     6.9093   7.9455   7.9455   9.3736   9.4343   9.6137   9.6138  11.1210
    20.5006  21.2511  21.2511  21.5692  21.8533  22.5438  22.5438  22.6606
    24.0852  24.9686  24.9686  25.2221  27.3371  27.3371  27.9266  28.4255
    31.9143  33.3474  33.3474  34.1401  34.6580  35.9720  35.9720  37.0309
    37.3529  37.8334  38.8970  38.8970  40.9495  42.4642  42.4643  43.0719

          k = 0.4000 0.4000 0.4000 (  3716 PWs)   bands (ev):

    -3.9042  -2.4571  -2.4571  -2.4571   0.4769   0.4769   0.4769   1.8870
     9.5642   9.5642   9.5642   9.9839   9.9839   9.9839  10.6428  10.6428
    21.1504  21.1504  21.1504  21.6723  21.6723  21.9579  22.6024  22.6024
    22.6024  22.9963  22.9963  22.9964  28.6849  28.6849  28.6850  28.7612
    34.0730  34.0730  34.0730  34.5094  37.2414  37.2414  37.2414  37.7533
    37.7533  37.9827  39.3674  39.3674  39.3674  39.4762  39.4762  39.4762

     highest occupied, lowest unoccupied level (ev):    13.2580   17.4322

!    total energy              =    -147.47253259 Ry
     total all-electron energy =      -609.585315 Ry
     estimated scf accuracy    <          6.2E-09 Ry

     The total energy is the sum of the following terms:
     one-electron contribution =      33.64087251 Ry
     hartree contribution      =       7.78354011 Ry
     xc contribution           =     -37.47201716 Ry
     ewald contribution        =    -102.12232028 Ry
     one-center paw contrib.   =     -49.30260777 Ry

     convergence has been achieved in   6 iterations

     Forces acting on atoms (cartesian axes, Ry/au):

     atom    1 type  1   force =     0.00000000    0.00000000    0.00000000
     atom    2 type  1   force =     0.00000197    0.00000197    0.00000197
     atom    3 type  1   force =     0.00000000    0.00000000    0.00000000
     atom    4 type  1   force =     0.00000197   -0.00000197   -0.00000197
     atom    5 type  1   force =     0.00000000    0.00000000    0.00000000
     atom    6 type  1   force =    -0.00000197    0.00000197   -0.00000197
     atom    7 type  1   force =     0.00000000    0.00000000    0.00000000
     atom    8 type  1   force =    -0.00000197   -0.00000197    0.00000197

     Total force =     0.000007     Total SCF correction =     0.000048
     SCF correction compared to forces is large: reduce conv_thr to get better values


     Computing stress (Cartesian axis) and pressure

          total   stress  (Ry/bohr**3)                   (kbar)     P=        0.17
   0.00000119   0.00000000   0.00000000            0.17        0.00        0.00
   0.00000000   0.00000119   0.00000000            0.00        0.17        0.00
   0.00000000   0.00000000   0.00000119            0.00        0.00        0.17


     Writing all to output data dir ./c2_qe.save/ :
     XML data file, charge density, pseudopotentials, collected wavefunctions

     init_run     :      0.44s CPU      0.44s WALL (       1 calls)
     electrons    :      2.72s CPU      2.88s WALL (       1 calls)
     forces       :      0.03s CPU      0.03s WALL (       1 calls)
     stress       :      0.08s CPU      0.08s WALL (       1 calls)

     Called by init_run:
     wfcinit      :      0.10s CPU      0.10s WALL (       1 calls)
     potinit      :      0.05s CPU      0.05s WALL (       1 calls)
     hinit0       :      0.27s CPU      0.28s WALL (       1 calls)

     Called by electrons:
     c_bands      :      2.28s CPU      2.30s WALL (       6 calls)
     sum_band     :      0.20s CPU      0.21s WALL (       6 calls)
     v_of_rho     :      0.02s CPU      0.02s WALL (       7 calls)
     newd         :      0.01s CPU      0.01s WALL (       7 calls)
     PAW_pot      :      0.25s CPU      0.26s WALL (       7 calls)
     mix_rho      :      0.00s CPU      0.00s WALL (       6 calls)

     Called by c_bands:
     init_us_2    :      0.01s CPU      0.01s WALL (     150 calls)
     cegterg      :      2.25s CPU      2.27s WALL (      60 calls)

     Called by *egterg:
     cdiaghg      :      0.99s CPU      0.99s WALL (     221 calls)
     h_psi        :      1.02s CPU      1.03s WALL (     231 calls)
     s_psi        :      0.05s CPU      0.05s WALL (     231 calls)
     g_psi        :      0.00s CPU      0.00s WALL (     161 calls)

     Called by h_psi:
     h_psi:calbec :      0.07s CPU      0.07s WALL (     231 calls)
     vloc_psi     :      0.89s CPU      0.90s WALL (     231 calls)
                                        0.00s GPU  (     231 calls)
     add_vuspsi   :      0.05s CPU      0.05s WALL (     231 calls)

     General routines
     calbec       :      0.16s CPU      0.16s WALL (     461 calls)
     fft          :      0.27s CPU      0.27s WALL (     102 calls)
     ffts         :      0.00s CPU      0.00s WALL (       6 calls)
     fftw         :      0.96s CPU      0.98s WALL (   17830 calls)

     Parallel routines

     PWSCF        :      3.41s CPU      4.01s WALL


   This run was terminated on:  20:27:21  25Jul2026            

=------------------------------------------------------------------------------=
   JOB DONE.
=------------------------------------------------------------------------------=
