
     Program PWSCF v.7.5 starts on 25Jul2026 at 21: 0: 1 

     This program is part of the open-source Quantum ESPRESSO suite
     for quantum simulation of materials; please cite
         "P. Giannozzi et al., J. Phys.:Condens. Matter 21 395502 (2009);
         "P. Giannozzi et al., J. Phys.:Condens. Matter 29 465901 (2017);
         "P. Giannozzi et al., J. Chem. Phys. 152 154105 (2020);
          URL http://www.quantum-espresso.org", 
     in publications or presentations arising from this work. More details at
     http://www.quantum-espresso.org/quote

     Parallel version (MPI & OpenMP), running on      10 processor cores
     Number of MPI processes:                10
     Threads/MPI process:                     1

     MPI processes distributed on     1 nodes
     214161 MiB available memory on the printing compute node when the environment starts

     Reading input from espresso.pwi
Warning: card &CELL ignored
Warning: card &FCP ignored
Warning: card &RISM ignored

     Current dimensions of program PWSCF are:
     Max number of different atomic species (ntypx) = 10
     Max number of k-points (npk) =  40000
     Max angular momentum in pseudopotentials (lmaxx) =  4
     file C.pbe-n-kjpaw_psl.1.0.0.UPF: wavefunction(s)  2S 2P renormalized
     Found identity + (  0.5000 -0.5000  0.0000) symmetry
     This is a supercell, fractional translations are disabled
     Message from routine setup:
     using ibrav=0 with symmetry is DISCOURAGED, use correct ibrav instead

     R & G space division:  proc/nbgrp/npool/nimage =      10
     Subspace diagonalization in iterative solution of the eigenvalue problem:
     a serial algorithm will be used


     Parallelization info
     --------------------
     sticks:   dense  smooth     PW     G-vecs:    dense   smooth      PW
     Min         118     118     33                22132    22132    3277
     Max         120     120     34                22140    22140    3291
     Sum        1185    1185    333               221347   221347   32857

     Using Slab Decomposition



     bravais-lattice index     =            0
     lattice parameter (alat)  =       6.7875  a.u.
     unit-cell volume          =    2288.4037 (a.u.)^3
     number of atoms/cell      =           16
     number of atomic types    =            1
     number of electrons       =        64.00
     number of Kohn-Sham states=           70
     kinetic-energy cutoff     =      80.0000  Ry
     charge density cutoff     =     320.0000  Ry
     scf convergence threshold =      1.0E-06
     mixing beta               =       0.2000
     number of iterations used =            8  local-TF  mixing
     Exchange-correlation= SLA  PW   PBX  PBC
                           (   1   4   3   4   0   0   0)

     celldm(1)=   6.787470  celldm(2)=   0.000000  celldm(3)=   0.000000
     celldm(4)=   0.000000  celldm(5)=   0.000000  celldm(6)=   0.000000

     crystal axes: (cart. coord. in units of alat)
               a(1) = (   1.000000   0.000000   0.000000 )  
               a(2) = (  -0.000000   1.000000   0.000000 )  
               a(3) = (   0.000000  -0.000000   7.318279 )  

     reciprocal axes: (cart. coord. in units 2 pi/alat)
               b(1) = (  1.000000  0.000000  0.000000 )  
               b(2) = ( -0.000000  1.000000  0.000000 )  
               b(3) = (  0.000000 -0.000000  0.136644 )  


     PseudoPot. # 1 for C  read from file:
     /lustre07/scratch/tanay11/siesta-qe-notebook-benchmark/pseudo_espresso/C.pbe-n-kjpaw_psl.1.0.0.UPF
     MD5 check sum: 5d2aebdfa2cae82b50a7e79e9516da0f
     Pseudo is Projector augmented-wave + core cor, Zval =  4.0
     Generated using "atomic" code by A. Dal Corso  v.5.1
     Shape of augmentation charge: PSQ
     Using radial grid of 1073 points,  4 beta functions with: 
                l(1) =   0
                l(2) =   0
                l(3) =   1
                l(4) =   1
     Q(r) pseudized with 0 coefficients 


     atomic species   valence    mass     pseudopotential
     C                 4.00    12.01100     C ( 1.00)

      4 Sym. Ops. (no inversion) found



   Cartesian axes

     site n.     atom                  positions (alat units)
         1        C      tau(   1) = (   0.0000000  -0.0000000   2.8129873  )
         2        C      tau(   2) = (   0.2500021   0.2500021   3.0301898  )
         3        C      tau(   3) = (   0.5000000   0.5000000   2.8129953  )
         4        C      tau(   4) = (   0.7499979   0.7499979   3.0301898  )
         5        C      tau(   5) = (   0.0000000   0.5000000   3.2887637  )
         6        C      tau(   6) = (   0.2499998   0.7500002   3.5335044  )
         7        C      tau(   7) = (   0.5000000   0.0000000   3.2887637  )
         8        C      tau(   8) = (   0.7500002   0.2499998   3.5335044  )
         9        C      tau(   9) = (  -0.0000000  -0.0000000   3.7845928  )
        10        C      tau(  10) = (   0.2500000   0.2500000   4.0293666  )
        11        C      tau(  11) = (   0.5000000   0.5000000   3.7845930  )
        12        C      tau(  12) = (   0.7500000   0.7500000   4.0293666  )
        13        C      tau(  13) = (   0.0000000   0.5000000   4.2882132  )
        14        C      tau(  14) = (   0.2499986   0.7500014   4.5054927  )
        15        C      tau(  15) = (   0.5000000   0.0000000   4.2882132  )
        16        C      tau(  16) = (   0.7500014   0.2499986   4.5054927  )

     number of k points=     9  Marzari-Vanderbilt smearing, width (Ry)=  0.0200
                       cart. coord. in units 2pi/alat
        k(    1) = (   0.0000000   0.0000000   0.0000000), wk =   0.0800000
        k(    2) = (   0.0000000   0.2000000   0.0000000), wk =   0.3200000
        k(    3) = (   0.0000000   0.4000000   0.0000000), wk =   0.3200000
        k(    4) = (   0.2000000   0.2000000   0.0000000), wk =   0.1600000
        k(    5) = (   0.2000000   0.4000000   0.0000000), wk =   0.3200000
        k(    6) = (   0.4000000   0.4000000   0.0000000), wk =   0.1600000
        k(    7) = (   0.2000000  -0.2000000   0.0000000), wk =   0.1600000
        k(    8) = (   0.4000000  -0.2000000   0.0000000), wk =   0.3200000
        k(    9) = (   0.4000000  -0.4000000   0.0000000), wk =   0.1600000

     Dense  grid:   221347 G-vectors     FFT dimensions: (  40,  40, 288)

     Estimated max dynamical RAM per process >      77.98 MB

     Estimated total dynamical RAM >     779.78 MB
 ----2D----2D----2D----2D----2D----2D----2D----2D----2D----2D----2D----2D
  The code is running with the 2D cutoff
  Please refer to:
  Sohier, T., Calandra, M., & Mauri, F. (2017), 
  Density functional perturbation theory for gated two-dimensional heterostructures:
  Theoretical developments and application to flexural phonons in graphene.
  Physical Review B, 96(7), 75448. https://doi.org/10.1103/PhysRevB.96.075448
 ----2D----2D----2D----2D----2D----2D----2D----2D----2D----2D----2D----2D

     Check: negative core charge=   -0.000006

     Initial potential from superposition of free atoms

     starting charge      63.9993, renormalised to      64.0000

     negative rho (up, down):  1.511E-04 0.000E+00
     Starting wfcs are   64 randomized atomic wfcs +    6 random wfcs
     Checking if some PAW data can be deallocated... 

     total cpu time spent up to now is        1.7 secs

     per-process dynamical memory:   132.9 Mb

     Self-consistent Calculation

     iteration #  1     ecut=    80.00 Ry     beta= 0.20
     Davidson diagonalization with overlap
     ethr =  1.00E-02,  avg # of iterations =  7.8

     negative rho (up, down):  4.739E-05 0.000E+00

     total cpu time spent up to now is        7.7 secs

     total energy              =    -294.14229492 Ry
     estimated scf accuracy    <       0.79623361 Ry

     iteration #  2     ecut=    80.00 Ry     beta= 0.20
     Davidson diagonalization with overlap
     ethr =  1.24E-03,  avg # of iterations =  1.2

     negative rho (up, down):  2.033E-05 0.000E+00

     total cpu time spent up to now is       10.5 secs

     total energy              =    -293.88417612 Ry
     estimated scf accuracy    <       0.56868340 Ry

     iteration #  3     ecut=    80.00 Ry     beta= 0.20
     Davidson diagonalization with overlap
     ethr =  8.89E-04,  avg # of iterations =  2.0

     negative rho (up, down):  1.149E-05 0.000E+00

     total cpu time spent up to now is       13.6 secs

     total energy              =    -293.94912678 Ry
     estimated scf accuracy    <       0.01508328 Ry

     iteration #  4     ecut=    80.00 Ry     beta= 0.20
     Davidson diagonalization with overlap
     ethr =  2.36E-05,  avg # of iterations =  8.0

     negative rho (up, down):  2.529E-06 0.000E+00

     total cpu time spent up to now is       19.0 secs

     total energy              =    -293.95087795 Ry
     estimated scf accuracy    <       0.00655477 Ry

     iteration #  5     ecut=    80.00 Ry     beta= 0.20
     Davidson diagonalization with overlap
     ethr =  1.02E-05,  avg # of iterations =  2.2

     negative rho (up, down):  1.741E-06 0.000E+00

     total cpu time spent up to now is       22.0 secs

     total energy              =    -293.95145309 Ry
     estimated scf accuracy    <       0.00287308 Ry

     iteration #  6     ecut=    80.00 Ry     beta= 0.20
     Davidson diagonalization with overlap
     ethr =  4.49E-06,  avg # of iterations =  5.0

     negative rho (up, down):  2.251E-06 0.000E+00

     total cpu time spent up to now is       25.6 secs

     total energy              =    -293.95106935 Ry
     estimated scf accuracy    <       0.00218786 Ry

     iteration #  7     ecut=    80.00 Ry     beta= 0.20
     Davidson diagonalization with overlap
     ethr =  3.42E-06,  avg # of iterations =  3.8

     negative rho (up, down):  9.101E-07 0.000E+00

     total cpu time spent up to now is       29.0 secs

     total energy              =    -293.95097252 Ry
     estimated scf accuracy    <       0.00102146 Ry

     iteration #  8     ecut=    80.00 Ry     beta= 0.20
     Davidson diagonalization with overlap
     ethr =  1.60E-06,  avg # of iterations =  4.9

     negative rho (up, down):  7.520E-07 0.000E+00

     total cpu time spent up to now is       32.6 secs

     total energy              =    -293.95089697 Ry
     estimated scf accuracy    <       0.00083352 Ry

     iteration #  9     ecut=    80.00 Ry     beta= 0.20
     Davidson diagonalization with overlap
     ethr =  1.30E-06,  avg # of iterations =  3.6

     negative rho (up, down):  4.751E-04 0.000E+00

     total cpu time spent up to now is       35.9 secs

     total energy              =    -293.95065544 Ry
     estimated scf accuracy    <       0.00059255 Ry

     iteration # 10     ecut=    80.00 Ry     beta= 0.20
     Davidson diagonalization with overlap
     ethr =  9.26E-07,  avg # of iterations =  4.6

     negative rho (up, down):  6.101E-04 0.000E+00

     total cpu time spent up to now is       39.7 secs

     total energy              =    -293.95064067 Ry
     estimated scf accuracy    <       0.00030683 Ry

     iteration # 11     ecut=    80.00 Ry     beta= 0.20
     Davidson diagonalization with overlap
     ethr =  4.79E-07,  avg # of iterations =  1.9

     negative rho (up, down):  4.778E-04 0.000E+00

     total cpu time spent up to now is       42.7 secs

     total energy              =    -293.95056814 Ry
     estimated scf accuracy    <       0.00025516 Ry

     iteration # 12     ecut=    80.00 Ry     beta= 0.20
     Davidson diagonalization with overlap
     ethr =  3.99E-07,  avg # of iterations =  3.2

     negative rho (up, down):  3.088E-04 0.000E+00

     total cpu time spent up to now is       46.0 secs

     total energy              =    -293.95059703 Ry
     estimated scf accuracy    <       0.00013375 Ry

     iteration # 13     ecut=    80.00 Ry     beta= 0.20
     Davidson diagonalization with overlap
     ethr =  2.09E-07,  avg # of iterations =  1.3

     negative rho (up, down):  4.904E-05 0.000E+00

     total cpu time spent up to now is       48.9 secs

     total energy              =    -293.95061639 Ry
     estimated scf accuracy    <       0.00009878 Ry

     iteration # 14     ecut=    80.00 Ry     beta= 0.20
     Davidson diagonalization with overlap
     ethr =  1.54E-07,  avg # of iterations =  6.1

     negative rho (up, down):  8.889E-05 0.000E+00

     total cpu time spent up to now is       52.8 secs

     total energy              =    -293.95061348 Ry
     estimated scf accuracy    <       0.00004448 Ry

     iteration # 15     ecut=    80.00 Ry     beta= 0.20
     Davidson diagonalization with overlap
     ethr =  6.95E-08,  avg # of iterations =  1.8

     negative rho (up, down):  2.775E-04 0.000E+00

     total cpu time spent up to now is       55.7 secs

     total energy              =    -293.95060054 Ry
     estimated scf accuracy    <       0.00003540 Ry

     iteration # 16     ecut=    80.00 Ry     beta= 0.20
     Davidson diagonalization with overlap
     ethr =  5.53E-08,  avg # of iterations =  3.9

     negative rho (up, down):  6.933E-04 0.000E+00

     total cpu time spent up to now is       59.1 secs

     total energy              =    -293.95060345 Ry
     estimated scf accuracy    <       0.00000944 Ry

     iteration # 17     ecut=    80.00 Ry     beta= 0.20
     Davidson diagonalization with overlap
     ethr =  1.47E-08,  avg # of iterations =  2.0

     negative rho (up, down):  7.072E-04 0.000E+00

     total cpu time spent up to now is       62.2 secs

     total energy              =    -293.95060371 Ry
     estimated scf accuracy    <       0.00000122 Ry

     iteration # 18     ecut=    80.00 Ry     beta= 0.20
     Davidson diagonalization with overlap
     ethr =  1.90E-09,  avg # of iterations =  1.1

     negative rho (up, down):  5.904E-04 0.000E+00

     total cpu time spent up to now is       64.7 secs

     End of self-consistent calculation

          k = 0.0000 0.0000 0.0000 ( 27729 PWs)   bands (ev):

   -28.4012 -26.8365 -24.4576 -21.2192 -20.0684 -20.0674 -19.9984 -19.9980
   -19.5492 -19.5468 -18.4352 -18.4306 -17.4367 -14.9841 -14.9819 -14.9522
   -14.9503 -13.8162 -13.8145 -13.7793 -13.6355 -13.3009 -12.5307 -11.7032
   -10.7964 -10.4301  -9.5687  -8.9804  -8.9787  -8.7714  -7.5035  -7.4293
    -7.4282  -6.8884  -4.4246  -3.1733  -3.1358  -3.0830  -2.2563  -1.7331
    -1.4981  -1.4979  -0.3463  -0.2184  -0.1957  -0.0955  -0.0952   0.1068
     1.5691   1.7578   1.7589   2.1734   2.2246   2.6310   3.2587   4.3157
     4.3162   4.8918   5.0616   5.8685   5.8708   6.1726   6.2658   6.4270
     7.7485   8.1801   8.1837   8.3976   8.4169   8.4201

          k = 0.0000 0.2000 0.0000 ( 27697 PWs)   bands (ev):

   -28.0407 -26.4866 -24.1347 -22.8477 -21.6343 -20.9652 -20.4294 -19.8538
   -19.1977 -18.1647 -17.3645 -17.1874 -16.9453 -15.9326 -15.5424 -14.5590
   -14.2797 -14.2675 -13.7754 -13.6586 -13.5611 -13.3379 -12.6956 -12.6827
   -11.8428 -10.5087  -9.9707  -9.6676  -8.7160  -8.6899  -7.3966  -7.2233
    -7.1617  -7.1433  -4.4315  -3.8299  -1.7755  -1.7476  -1.5081  -0.7771
    -0.6615  -0.4803  -0.3884  -0.1631   0.1172   0.2600   0.5543   1.1670
     1.2769   2.1726   2.3905   2.6511   3.0870   3.2645   3.5837   3.8725
     4.0116   4.4938   5.4304   5.6322   5.8330   6.0503   6.5365   6.6072
     6.8134   7.2099   7.2353   7.7337   7.7915   7.8569

          k = 0.0000 0.4000 0.0000 ( 27646 PWs)   bands (ev):

   -26.9679 -25.4512 -25.2136 -23.7843 -23.1994 -21.7977 -20.3199 -19.7846
   -18.4955 -17.6017 -17.1762 -16.1354 -16.0697 -15.9399 -15.2337 -15.2035
   -15.1952 -14.3369 -14.0197 -13.9409 -13.5741 -13.5140 -12.9290 -12.0743
   -11.8997 -11.7925 -11.3411 -10.4784  -8.1735  -8.1542  -7.7748  -7.4636
    -6.4556  -6.1729  -5.2811  -4.9267  -1.1806  -0.5788   0.2826   0.9932
     1.0753   1.1548   1.2471   1.5128   1.7525   2.0096   2.0713   2.3283
     2.6504   2.7263   2.8776   2.8816   3.4584   3.4988   3.5860   4.0254
     4.5447   4.7494   4.8065   4.9654   5.1506   5.2537   5.4176   5.4293
     5.4620   5.4717   6.3095   6.3372   6.3459   6.7351

          k = 0.2000 0.2000 0.0000 ( 27646 PWs)   bands (ev):

   -27.6820 -26.1383 -23.8124 -22.5729 -22.5717 -21.5389 -21.5346 -20.5688
   -18.2194 -18.2156 -18.0123 -16.0476 -16.0433 -16.0232 -15.4363 -14.9178
   -14.9172 -14.4588 -14.4585 -13.9340 -12.9531 -12.9530 -12.8031 -12.7259
   -11.4556 -11.2316 -10.1019  -9.4015  -8.5523  -8.5514  -7.6718  -7.3986
    -7.0336  -7.0331  -3.9435  -3.2908  -1.9444  -1.0748  -0.6142  -0.6109
    -0.4482   0.0575   0.4024   0.4539   0.4570   0.9440   0.9944   1.7055
     2.0705   2.7167   2.7175   2.9326   2.9530   3.6944   3.8031   4.1889
     4.1912   4.4857   5.1553   5.8725   5.8734   5.9250   6.2015   6.2498
     6.2520   6.5987   6.7457   6.7458   7.3860   7.3883

          k = 0.2000 0.4000 0.0000 ( 27651 PWs)   bands (ev):

   -26.6157 -25.1141 -24.8810 -23.5164 -22.9322 -21.9111 -21.7779 -19.6914
   -19.5001 -18.7550 -18.0278 -17.8017 -16.0005 -15.8889 -15.5567 -15.1245
   -13.9718 -13.9356 -13.6288 -13.1191 -13.0398 -12.5718 -12.4535 -12.0905
   -11.9235 -11.7857 -10.5609 -10.2193  -8.0827  -8.0635  -8.0092  -7.7819
    -6.5881  -6.5337  -4.1842  -3.9458  -0.4248  -0.1848  -0.0591   0.6054
     0.8552   1.1544   1.3736   1.4100   1.5544   1.8758   2.0394   2.0634
     2.7467   2.7843   3.3977   3.4052   3.7120   3.8536   3.9434   4.0291
     4.0563   4.3722   4.6499   4.6548   4.9234   5.2309   5.2580   5.6968
     5.8888   5.8898   6.1261   6.3361   6.4625   6.4637

          k = 0.4000 0.4000 0.0000 ( 27622 PWs)   bands (ev):

   -25.5756 -24.1647 -23.9208 -23.9197 -22.8022 -22.7981 -22.7817 -20.7973
   -20.2090 -19.1235 -19.1203 -18.6026 -18.1104 -15.8967 -15.8959 -15.5037
   -14.3394 -12.9451 -12.9442 -11.7504 -11.5898 -11.5415 -11.5366 -11.4523
   -11.4500 -11.2410 -10.2792  -9.6965  -8.3284  -8.2749  -7.7632  -7.7622
    -6.6217  -6.6211  -3.3995  -3.3622  -0.2701   0.6304   0.6465   0.8263
     0.9527   0.9560   1.3100   1.3118   1.4664   1.8029   1.8897   2.3400
     2.3416   2.3994   2.4353   2.4395   3.0388   3.4427   4.2389   4.3118
     4.3158   4.3164   4.6927   4.6953   5.3364   5.3394   5.8339   5.8340
     5.8341   6.0224   6.3347   6.6380   7.0026   7.0608

          k = 0.2000-0.2000 0.0000 ( 27646 PWs)   bands (ev):

   -27.6819 -26.1419 -23.8342 -22.5999 -22.5507 -21.8699 -20.9506 -19.9954
   -18.9377 -18.6180 -17.3520 -17.3095 -17.2638 -16.3540 -14.6308 -14.5534
   -14.4244 -14.0189 -13.7215 -13.5480 -13.1498 -13.0887 -12.7154 -12.1163
   -11.9788 -10.6635 -10.6291  -9.0152  -8.6434  -8.5445  -7.9048  -7.1768
    -6.6675  -6.5448  -5.0789  -4.7918  -2.0125  -1.5670  -1.0380  -0.5546
    -0.4699  -0.1455   0.1656   0.1760   0.6445   0.6597   1.2677   1.8150
     2.0575   2.3415   2.9528   3.0051   3.1167   3.4601   4.2202   4.5213
     4.6616   5.0086   5.3193   5.3246   5.6175   6.0386   6.3683   6.4119
     6.5746   6.7061   6.8984   7.1066   7.1099   7.2780

          k = 0.4000-0.2000 0.0000 ( 27651 PWs)   bands (ev):

   -26.6163 -25.1247 -24.8787 -23.5018 -22.9777 -22.1404 -21.0322 -20.2276
   -19.6096 -18.4060 -17.9127 -17.6339 -17.6031 -15.4354 -15.4082 -15.1376
   -14.3226 -13.9197 -13.2236 -12.8203 -12.7885 -12.1759 -12.0620 -12.0111
   -11.8572 -11.7899 -11.0867 -10.1377  -8.3579  -8.3119  -7.7396  -7.6601
    -5.8036  -5.6986  -5.3524  -5.3137  -0.8964  -0.2796   0.0496   0.0801
     0.7376   0.7991   1.5505   1.5525   1.8541   1.9757   2.0831   2.4022
     2.4609   2.7636   3.1206   3.3523   3.4429   3.7570   3.8443   3.9296
     3.9321   4.0717   4.4191   5.1285   5.1763   5.2622   5.3180   5.7839
     5.8974   6.2689   6.3269   6.3355   7.0611   7.3060

          k = 0.4000-0.4000 0.0000 ( 27622 PWs)   bands (ev):

   -25.5774 -24.1805 -23.9450 -23.9034 -23.1537 -22.5259 -22.4337 -21.1855
   -19.8508 -19.5264 -19.3088 -18.3450 -17.2095 -17.0574 -16.3947 -15.4269
   -13.4112 -12.9820 -12.8119 -12.3648 -11.6566 -11.5230 -11.3416 -11.1807
   -10.8910 -10.8533 -10.5373  -9.9994  -8.5698  -8.3270  -8.0320  -7.3301
    -6.5478  -6.1979  -4.0185  -3.9559  -0.4041   0.4437   0.5201   0.8064
     0.8709   1.0561   1.4072   1.4201   1.4888   1.6302   1.7826   1.9554
     2.0979   2.1977   2.5417   2.9353   3.0998   3.1902   3.4351   4.3899
     4.4638   4.9337   4.9824   5.0975   5.1545   5.3400   5.6446   6.0266
     6.2294   6.2982   6.5583   6.6243   6.7739   7.0343

     the Fermi energy is    -7.2051 ev

!    total energy              =    -293.95060371 Ry
     total all-electron energy =     -1218.176169 Ry
     estimated scf accuracy    <       0.00000041 Ry
     smearing contrib. (-TS)   =       0.00019503 Ry
     internal energy E=F+TS    =    -293.95079874 Ry

     The total energy is F=E-TS. E is the sum of the following terms:
     one-electron contribution =   -8792.26238601 Ry
     hartree contribution      =    4397.31822731 Ry
     xc contribution           =     -73.52832693 Ry
     ewald contribution        =    4273.17526731 Ry
     one-center paw contrib.   =     -98.65358043 Ry

     convergence has been achieved in  18 iterations

     negative rho (up, down):  5.904E-04 0.000E+00

     Forces acting on atoms (cartesian axes, Ry/au):

     atom    1 type  1   force =     0.00000000    0.00000000   -0.00042322
     atom    2 type  1   force =    -0.00001370   -0.00001370   -0.00176341
     atom    3 type  1   force =     0.00000000    0.00000000   -0.00045369
     atom    4 type  1   force =     0.00001370    0.00001370   -0.00176341
     atom    5 type  1   force =     0.00000000    0.00000000    0.00245474
     atom    6 type  1   force =     0.00000184   -0.00000184   -0.00028758
     atom    7 type  1   force =     0.00000000    0.00000000    0.00245474
     atom    8 type  1   force =    -0.00000184    0.00000184   -0.00028758
     atom    9 type  1   force =     0.00000000    0.00000000    0.00070897
     atom   10 type  1   force =     0.00000308    0.00000308   -0.00172682
     atom   11 type  1   force =     0.00000000    0.00000000    0.00070534
     atom   12 type  1   force =    -0.00000308   -0.00000308   -0.00172682
     atom   13 type  1   force =     0.00000000    0.00000000    0.00118714
     atom   14 type  1   force =    -0.00000108    0.00000108   -0.00013276
     atom   15 type  1   force =     0.00000000    0.00000000    0.00118714
     atom   16 type  1   force =     0.00000108   -0.00000108   -0.00013276

     Total force =     0.005352     Total SCF correction =     0.000682
     SCF correction compared to forces is large: reduce conv_thr to get better values


     Computing stress (Cartesian axis) and pressure


     negative rho (up, down):  5.904E-04 0.000E+00
          total   stress  (Ry/bohr**3)                   (kbar)     P=      -30.71
  -0.00031424   0.00017952   0.00000000          -46.23       26.41        0.00
   0.00017952  -0.00031424   0.00000000           26.41      -46.23        0.00
   0.00000000   0.00000000   0.00000229            0.00        0.00        0.34


     Writing all to output data dir ./c2_qe.save/ :
     XML data file, charge density, pseudopotentials, collected wavefunctions

     init_run     :      1.53s CPU      1.65s WALL (       1 calls)
     electrons    :     57.54s CPU     63.23s WALL (       1 calls)
     forces       :      0.38s CPU      0.39s WALL (       1 calls)
     stress       :      1.21s CPU      1.23s WALL (       1 calls)

     Called by init_run:
     wfcinit      :      0.85s CPU      0.93s WALL (       1 calls)
     potinit      :      0.08s CPU      0.10s WALL (       1 calls)
     hinit0       :      0.54s CPU      0.54s WALL (       1 calls)

     Called by electrons:
     c_bands      :     47.39s CPU     51.04s WALL (      18 calls)
     sum_band     :      5.89s CPU      6.72s WALL (      18 calls)
     v_of_rho     :      0.31s CPU      0.40s WALL (      19 calls)
     newd         :      0.28s CPU      0.29s WALL (      19 calls)
     PAW_pot      :      1.26s CPU      1.27s WALL (      19 calls)
     mix_rho      :      2.49s CPU      3.38s WALL (      18 calls)

     Called by c_bands:
     init_us_2    :      0.70s CPU      0.72s WALL (     351 calls)
     cegterg      :     46.14s CPU     49.76s WALL (     162 calls)

     Called by *egterg:
     cdiaghg      :      6.94s CPU      7.00s WALL (     741 calls)
     h_psi        :     25.44s CPU     28.96s WALL (     750 calls)
     s_psi        :      3.26s CPU      3.29s WALL (     750 calls)
     g_psi        :      0.09s CPU      0.10s WALL (     579 calls)

     Called by h_psi:
     h_psi:calbec :      2.71s CPU      2.77s WALL (     750 calls)
     vloc_psi     :     19.20s CPU     22.61s WALL (     750 calls)
                                        0.00s GPU  (     750 calls)
     add_vuspsi   :      3.32s CPU      3.35s WALL (     750 calls)

     General routines
     calbec       :      4.55s CPU      4.63s WALL (    1065 calls)
     fft          :      0.67s CPU      0.79s WALL (     234 calls)
     ffts         :      1.25s CPU      1.99s WALL (    2109 calls)
     fftw         :     20.94s CPU     24.76s WALL (   64308 calls)

     Parallel routines

     PWSCF        :     60.92s CPU     67.67s WALL


   This run was terminated on:  21: 1: 9  25Jul2026            

=------------------------------------------------------------------------------=
   JOB DONE.
=------------------------------------------------------------------------------=
