SystemName	c2
SystemLabel	c2

DM.MixingWeight	0.05
DM.NumberPulay	6
DM.Tolerance	0.001
ElectronicTemperature	50 meV
MaxSCFIterations	400
SCF.H.Converge	False
SCFMustConverge	True

Spin	collinear
SpinPolarized	True	# Backwards compatibility.
XC.functional	GGA
XC.authors	PBE

MeshCutoff	3129.309392802233	eV
PAO.EnergyShift	0.13605693012183623	eV

NumberOfSpecies	2
NumberOfAtoms	33
%block ChemicalSpecieslabel
    1 6 C.1 C.1.psml
    2 28 Ni.2 Ni.2.psml
%endblock ChemicalSpecieslabel

%block PAO.BasisSizes
    C.1	DZP
    Ni.2	DZP
%endblock PAO.BasisSizes


LatticeConstant	1.0 Ang
%block LatticeVectors
    9.84 0.0 0.0
    -4.92 8.521689973238876 0.0
    0.0 -0.0 20.0
%endblock LatticeVectors
AtomicCoordinatesFormat	Ang
%block AtomicCoordinatesAndAtomicSpecies
    -0.012039068928088219 -0.018214596194060625 10.030976633391408 1
    1.2186111710118348 0.6922405687269533 9.980792560668243 1
    -1.2323205487867388 2.120761683586914 10.043275066308299 1
    -0.012102430579689032 2.8379562358009416 10.03346747480274 1
    -2.4583958446054632 4.2505171021670085 10.054315651754168 1
    -1.2291156926583222 4.960151072939017 10.053536405543936 1
    -3.6897421173358036 6.377171081981347 10.043693752488238 1
    -2.4584129351597666 7.075169994390084 10.030941361713756 1
    2.4616043543772053 -0.025373219261185038 9.98012751970924 1
    3.704568864461434 0.6922074176694373 9.980193097057805 1
    1.218662893050424 2.127472116338581 9.983267472480648 1
    2.4615578166112724 2.845139107532044 9.98451942805967 1
    -0.0009931335522255051 4.25332370330596 10.046281298956663 1
    1.2301736935490077 4.9641337210310885 10.046815572830486 1
    -1.2270704646299508 6.377180500340832 10.043670411132116 1
    0.004061060268130831 7.087969434869205 10.043216866401139 1
    4.935257898493985 -0.01823388354442405 10.030299085143156 1
    6.155503677916832 0.6991053532012542 10.041877893297887 1
    3.7044822823791566 2.127440363176499 9.982576806306792 1
    4.935217125319984 2.8379341789566888 10.032754696479099 1
    2.461593132425313 4.266131571794138 10.035718673179423 1
    3.692998614165738 4.964133673725833 10.04651789140853 1
    1.2322285604152463 6.381171252410013 10.053530447250571 1
    2.46157759894684 7.090897964026438 10.054299477792464 1
    7.381610529317197 -0.011230811392513841 10.051042282008828 1
    8.60767984575989 0.6990982761535567 10.042426963510668 1
    6.1554794063754965 2.1207671386731235 10.042768056605514 1
    7.381568333363375 2.8310791329567424 10.052384085077593 1
    4.924180585682054 4.253319677727485 10.045790372872021 1
    6.152299232813536 4.9601297257348715 10.053331259650012 1
    3.69097155721675 6.381189082971984 10.05362118088026 1
    4.919119773296458 7.087985180453901 10.043474574027718 1
    2.461968270415827 1.406930330034553 11.455239528091566 2
%endblock AtomicCoordinatesAndAtomicSpecies
%block DM.InitSpin
    33 2.00000000000000 
%endblock DM.InitSpin

DM.UseSaveDM	True

#KPoint grid
%block kgrid_Monkhorst_Pack
     3       0       0  0.0
     0       3       0  0.0
     0       0       1  0.0
%endblock kgrid_Monkhorst_Pack

