8
Lattice="3.591774264265943 -1.669154733547211e-21 -1.6706909969565732e-20 -3.2061584914499825e-20 3.591774264265943 -1.0012922886621863e-19 1.454713141326009e-20 3.321125725744118e-21 3.591774264265943" Properties=species:S:1:pos:R:3:forces:R:3 energy=-1309.022615 free_energy=-1309.022615 stress="0.00019345582244613716 -0.0 -0.0 -0.0 0.00019345582244613716 -0.0 -0.0 -0.0 0.00019345582244613716" dipole="_JSON [[0.0, 0.0, 0.0]]" pbc="T T T"
C        0.00000000       0.00000000       0.00000000       0.00000000      -0.00000000      -0.00000000
C        0.89794357       0.89794357       0.89794357      -0.00000000       0.00000000       0.00000000
C       -0.00000000       1.79588713       1.79588713       0.00000000       0.00000000       0.00000000
C        0.89794357       2.69383070       2.69383070      -0.00000000      -0.00000000      -0.00000000
C        1.79588713      -0.00000000       1.79588713      -0.00000000      -0.00000000      -0.00000000
C        2.69383070       0.89794357       2.69383070       0.00000000       0.00000000       0.00000000
C        1.79588713       1.79588713       0.00000000      -0.00000000       0.00000000       0.00000000
C        2.69383070       2.69383070       0.89794357       0.00000000      -0.00000000      -0.00000000
