8
Lattice="3.567 0.0 0.0 0.0 3.567 0.0 0.0 0.0 3.567" Properties=species:S:1:pos:R:3:forces:R:3 energy=-1308.986275 free_energy=-1308.986275 stress="-0.056865269354348866 -0.0 -0.0 -0.0 -0.056865269354348866 0.0 -0.0 0.0 -0.056865269354348866" dipole="_JSON [[0.0, 0.0, 0.0]]" pbc="T T T"
C        0.00000000       0.00000000       0.00000000      -0.00000000      -0.00000000       0.00000000
C        0.89175000       0.89175000       0.89175000       0.00000000       0.00000000      -0.00000000
C        0.00000000       1.78350000       1.78350000      -0.00000000       0.00000000      -0.00000000
C        0.89175000       2.67525000       2.67525000       0.00000000      -0.00000000       0.00000000
C        1.78350000       0.00000000       1.78350000       0.00000000      -0.00000000       0.00000000
C        2.67525000       0.89175000       2.67525000      -0.00000000       0.00000000      -0.00000000
C        1.78350000       1.78350000       0.00000000       0.00000000       0.00000000      -0.00000000
C        2.67525000       2.67525000       0.89175000      -0.00000000      -0.00000000       0.00000000
