40
Lattice="3.591774264265943 0.0 0.0 -9.68081031404745e-20 3.591774264265943 0.0 0.0 -0.0 43.469153490997286" Properties=species:S:1:pos:R:3:tags:I:1 pbc="T T F"
C        0.00000000       0.00000000      15.00000000        4
C        0.89794357       0.89794357      15.89794357        4
C        1.79588713       1.79588713      15.00000000        4
C        2.69383070       2.69383070      15.89794357        4
C       -0.00000000       1.79588713      16.79588713        4
C        0.89794357       2.69383070      17.69383070        4
C        1.79588713       0.00000000      16.79588713        4
C        2.69383070       0.89794357      17.69383070        4
C        0.00000000       0.00000000      18.59177426        3
C        0.89794357       0.89794357      19.48971783        3
C        1.79588713       1.79588713      18.59177426        3
C        2.69383070       2.69383070      19.48971783        3
C       -0.00000000       1.79588713      20.38766140        3
C        0.89794357       2.69383070      21.28560496        3
C        1.79588713       0.00000000      20.38766140        3
C        2.69383070       0.89794357      21.28560496        3
C        0.00000000       0.00000000      22.18354853        2
C        0.89794357       0.89794357      23.08149209        2
C        1.79588713       1.79588713      22.18354853        2
C        2.69383070       2.69383070      23.08149209        2
C       -0.00000000       1.79588713      23.97943566        2
C        0.89794357       2.69383070      24.87737923        2
C        1.79588713       0.00000000      23.97943566        2
C        2.69383070       0.89794357      24.87737923        2
C        0.00000000       0.00000000      25.77532279        1
C        0.89794357       0.89794357      26.67326636        1
C        1.79588713       1.79588713      25.77532279        1
C        2.69383070       2.69383070      26.67326636        1
C       -0.00000000       1.79588713      27.57120992        1
C        0.89794357       2.69383070      28.46915349        1
C        1.79588713       0.00000000      27.57120992        1
C        2.69383070       0.89794357      28.46915349        1
H        0.39794357       2.19383070      29.26915349        0
H        1.39794357       3.19383070      29.26915349        0
H        2.19383070       1.39794357      29.26915349        0
H        3.19383070       0.39794357      29.26915349        0
H       -0.50000000      -0.50000000      14.20000000        0
H        0.50000000       0.50000000      14.20000000        0
H        1.29588713       2.29588713      14.20000000        0
H        2.29588713       1.29588713      14.20000000        0
