40
Lattice="3.591774264265943 0.0 0.0 -9.68081031404745e-20 3.591774264265943 0.0 0.0 -0.0 43.469153490997286" Properties=species:S:1:pos:R:3:tags:I:1:forces:R:3 energy=-5357.905791 free_energy=-5357.905791 stress="-0.042442114045179995 0.03330001805991095 -4.627514689741487e-05 0.03330001805991095 -0.042505558740628634 5.095775104774852e-05 -4.627514689741487e-05 5.095775104774852e-05 0.000370660254017587" dipole="0.0 0.0 0.0002371333626606226" pbc="T T T"
C        0.10362603      -0.10363497      15.05376860        4      -0.00384375       0.00391540       0.00145612
C        0.89349137       0.90231197      15.90188894        4      -0.00203863       0.00254804      -0.00120379
C        1.89934779       1.69222409      15.05381559        4      -0.00256457       0.00225807       0.00086834
C        2.68946258       2.69818178      15.90175613        4      -0.00287411       0.00174956       0.00016360
C       -0.00253229       1.79831703      16.80863164        4      -0.00072351       0.00148096      -0.00198859
C        0.89948589       2.69226887      17.70443904        4      -0.00049998      -0.00103492       0.00184981
C        1.79342539       0.00243409      16.80853143        4      -0.00217937       0.00113607       0.00113172
C        2.69530594       0.89636406      17.70450376        4       0.00189894      -0.00049460       0.00009531
C        0.00155268      -0.00158421      18.60329418        3       0.00011233      -0.00102515       0.00164689
C        0.89912348       0.89671712      19.50131702        3       0.00017615      -0.00108881      -0.00083054
C        1.79738377       1.79429158      18.60330762        3       0.00157426      -0.00074289       0.00112475
C        2.69499810       2.69257433      19.50126121        3       0.00062959       0.00014403       0.00082280
C        0.00103368       1.79477227      20.39955734        3       0.00043647      -0.00047265       0.00041086
C        0.89882850       2.69284436      21.29769898        3       0.00204932      -0.00170215       0.00001067
C        1.79694243      -0.00111760      20.39960735        3      -0.00005332      -0.00048008      -0.00173989
C        2.69477074       0.89692909      21.29769835        3      -0.00000640      -0.00107860       0.00009500
C        0.00081355      -0.00094367      22.19593498        2       0.00142365      -0.00133679      -0.00019304
C        0.89876393       0.89699782      23.09407769        2       0.00104451      -0.00204927       0.00123647
C        1.79670897       1.79493982      22.19584930        2       0.00100399      -0.00151944       0.00219127
C        2.69463203       2.69282350      23.09408442        2       0.00163638      -0.00063725       0.00055891
C        0.00080792       1.79487456      23.99244905        2       0.00066396      -0.00072706      -0.00213039
C        0.89868179       2.69291167      24.89045518        2      -0.00151723       0.00029928      -0.00298564
C        1.79670048      -0.00105285      23.99234129        2       0.00032681       0.00041559       0.00100198
C        2.69453849       0.89691854      24.89039428        2      -0.00070983       0.00289164      -0.00131412
C        0.00092568      -0.00113578      25.78920345        1      -0.00085343      -0.00020147      -0.00292543
C        0.90309526       0.89259778      26.68516434        1       0.00326036      -0.00418835      -0.00185803
C        1.79679758       1.79466931      25.78912086        1       0.00003733       0.00193671      -0.00105837
C        2.69899708       2.68835850      26.68506009        1       0.00327895      -0.00186523       0.00112357
C        0.00732292       1.78837630      27.59197829        1       0.00280700      -0.00341548      -0.00027552
C        0.79800191       2.79382030      28.43995792        1       0.00242542      -0.00296466      -0.00188143
C        1.80324296      -0.00764948      27.59169526        1       0.00331896      -0.00272375       0.00121680
C        2.59376736       0.99756262      28.43981693        1       0.00046344      -0.00008600      -0.00118168
H        1.06366033       2.52940813      29.49639501        0      -0.00432555       0.00112041      -0.00173346
H        0.07744560       3.51435519      28.71585136        0      -0.00318287       0.00368318      -0.00442783
H        1.87264588       1.71760475      28.71512698        0      -0.00534144       0.00775985      -0.00298132
H        2.85829511       0.73293311      29.49654390        0      -0.00285349       0.00265492      -0.00297538
H       -0.16035494       0.15976361      13.99650319        0      -0.00129764       0.00331847       0.00406119
H        0.82508998      -0.82412580      14.77960360        0      -0.00119551      -0.00128331      -0.00005206
H        1.63512663       1.95538319      13.99652857        0       0.00025999       0.00276543       0.00426256
H        2.62055139       0.97146854      14.77976560        0       0.00098666      -0.00236886      -0.00125611
