40
Lattice="3.591774264265943 0.0 0.0 -9.68081031404745e-20 3.591774264265943 0.0 0.0 -0.0 43.469153490997286" Properties=species:S:1:pos:R:3:tags:I:1:forces:R:3 energy=-5357.804428 free_energy=-5357.804428 stress="-0.04296188310586703 0.03356692649647997 -5.518127635981417e-05 0.03356692649647997 -0.043060125977256385 6.959635188142951e-05 -5.518127635981417e-05 6.959635188142951e-05 0.00036065233534334455" dipole="0.0 0.0 0.0004769732518485394" pbc="T T F"
C        0.10418814      -0.10426220      15.05369687        4       0.00340759      -0.00367264       0.00021623
C        0.89333435       0.90240422      15.90138726        4       0.00014612       0.00065586      -0.00115003
C        1.90015911       1.69126999      15.05415277        4       0.00137809       0.00050936      -0.00360646
C        2.68930526       2.69826373      15.90133667        4      -0.00069564       0.00201454      -0.00334647
C       -0.00251083       1.79845471      16.80817521        4      -0.00224079       0.00002584       0.00301734
C        0.89925872       2.69245595      17.70434804        4       0.00345106      -0.00113686       0.00018818
C        1.79326489       0.00247831      16.80831931        4       0.00013123       0.00142203      -0.00237745
C        2.69523713       0.89662116      17.70421144        4      -0.00155693      -0.00202474       0.00358144
C        0.00144038      -0.00141470      18.60308831        3       0.00262399      -0.00228566       0.00176162
C        0.89895437       0.89694317      19.50107615        3       0.00165823      -0.00117865       0.00294250
C        1.79741312       1.79446821      18.60309231        3      -0.00013115      -0.00271539       0.00235315
C        2.69487498       2.69289387      19.50116082        3       0.00053042      -0.00355167       0.00017759
C        0.00094654       1.79492892      20.39956726        3       0.00050772      -0.00109130      -0.00099229
C        0.89887637       2.69283626      21.29777135        3      -0.00250770       0.00135649       0.00107176
C        1.79679734      -0.00095571      20.39947259        3       0.00129098      -0.00127110       0.00291213
C        2.69465632       0.89699640      21.29777030        3       0.00146429       0.00021955       0.00101132
C        0.00081537      -0.00097894      22.19604246        2      -0.00091536       0.00089901       0.00346523
C        0.89861705       0.89699522      23.09429590        2       0.00077524       0.00121035       0.00121667
C        1.79668954       1.79490538      22.19618451        2      -0.00030167       0.00146049      -0.00037212
C        2.69453869       2.69297959      23.09427653        2       0.00002242      -0.00122670       0.00250562
C        0.00067119       1.79496136      23.99251483        2       0.00087551      -0.00040554       0.00418637
C        0.89831540       2.69313064      24.89042670        2       0.00368624      -0.00086021       0.00267310
C        1.79654633      -0.00086553      23.99267040        2       0.00152572      -0.00216749      -0.00106930
C        2.69420818       0.89737941      24.89051716        2       0.00227144      -0.00527426      -0.00030799
C        0.00077066      -0.00114623      25.78913432        1       0.00281731       0.00021880       0.00279456
C        0.90327125       0.89219743      26.68508860        1      -0.00119957       0.00401010       0.00419144
C        1.79669685       1.79485300      25.78928038        1       0.00115962      -0.00387766      -0.00074009
C        2.69923738       2.68820050      26.68523215        1      -0.00192131       0.00015918      -0.00117795
C        0.00758877       1.78790820      27.59225854        1       0.00024228       0.00188482       0.00176288
C        0.79763966       2.79412899      28.43971223        1      -0.00025744       0.00074724      -0.00120137
C        1.80358543      -0.00804302      27.59202897        1      -0.00134885       0.00232479       0.00052744
C        2.59304176       0.99816471      28.43960135        1       0.00365184      -0.00290275      -0.00238915
H        1.06452575       2.52924033      29.49593612        0      -0.00517229      -0.00085489      -0.00205102
H        0.07784640       3.51396476      28.71720495        0      -0.00101263       0.00085114       0.00234436
H        1.87247486       1.71737557      28.71686257        0       0.00641920      -0.00320295      -0.00222570
H        2.85836889       0.73300005      29.49606506        0       0.00270426      -0.00372908      -0.00103934
H       -0.16039002       0.15944684      13.99630982        0       0.00487707      -0.00215595       0.00380348
H        0.82562474      -0.82409130      14.77958918        0      -0.00087628      -0.00330904      -0.00118813
H        1.63530915       1.95467207      13.99705017        0       0.00195679       0.00206830      -0.00349364
H        2.62115333       0.97116813      14.77935505        0      -0.00305640       0.00067563       0.00343893
