33
Lattice="9.84 0.0 0.0 -4.92 8.521689973238876 0.0 0.0 -0.0 20.0" Properties=species:S:1:pos:R:3:initial_magmoms:R:1:forces:R:3 energy=-9795.962463 free_energy=-9795.993306 stress="-0.021707818314805564 5.876209129830461e-06 -3.672630706144038e-06 5.876209129830461e-06 -0.021713969971238357 4.590788382680047e-06 -3.672630706144038e-06 4.590788382680047e-06 -1.7812258924798582e-05" dipole="0.0 0.0 0.36473130662381814" pbc="T T F"
C        0.01027564      -0.01253112      10.05468646       0.00000000      -0.00389859      -0.00380860      -0.00369861
C        1.23842517       0.69427527      10.04497670       0.00000000      -0.00363605      -0.00233286       0.00015545
C       -1.21903443       2.11648829      10.05139872       0.00000000      -0.00711900       0.00714127       0.00030676
C        0.00718432       2.82674009      10.04288560       0.00000000      -0.00421982       0.00200711       0.00098882
C       -2.44551288       4.24848127      10.04322335       0.00000000      -0.00200759      -0.00035373       0.00295394
C       -1.21919526       4.95875208      10.05200392       0.00000000      -0.00206272      -0.00181396      -0.00099391
C       -3.67679290       6.38132652      10.04638708       0.00000000      -0.00043393      -0.00975752      -0.00114054
C       -2.44853260       7.08815634      10.05389151       0.00000000      -0.00356609      -0.00279767      -0.00071631
C        2.46940660      -0.01643387      10.04444331       0.00000000       0.00317637      -0.00387864       0.00110074
C        3.70055804       0.68161751      10.03121560       0.00000000       0.00604662       0.00074832       0.00245623
C        1.22733466       2.10952105      10.03207833       0.00000000      -0.00127758       0.00734796       0.00242154
C        2.45775804       2.82001970       9.98252101       0.00000000      -0.00113946       0.00156315      -0.00437499
C        0.00705912       4.24834631      10.04266578       0.00000000      -0.00505091       0.00573333       0.00083306
C        1.22717044       4.96564171      10.03147720       0.00000000       0.00437365       0.00346970       0.00185793
C       -1.21930896       6.37835115      10.05408206       0.00000000       0.00005548      -0.00499925      -0.00287277
C        0.00991702       7.08802289      10.05147423       0.00000000       0.00624287       0.00093161      -0.00125984
C        4.93178673      -0.01654346      10.04195525       0.00000000       0.00693486      -0.00013359       0.00275874
C        6.16309511       0.69406739      10.04169492       0.00000000       0.00372928       0.00277114       0.00222177
C        3.70051274       2.10259950       9.98209649       0.00000000       0.00780397       0.00002219      -0.00412225
C        4.94337511       2.82000517       9.98194692       0.00000000       0.00781327       0.00126691      -0.00046987
C        2.45780572       4.25506971       9.98263790       0.00000000      -0.00276823       0.00855468      -0.00249168
C        3.70054262       4.97276302       9.98345947       0.00000000       0.00346420       0.00683289      -0.00244527
C        1.23819886       6.38114003      10.04291561       0.00000000      -0.00051425      -0.00000409       0.00010832
C        2.46939223       7.09191931      10.04367529       0.00000000       0.00248032       0.00057132       0.00178612
C        7.39151188      -0.01261731      10.05179960       0.00000000      -0.00394765      -0.00022965      -0.00037127
C        8.62096509       0.69706408      10.05432021       0.00000000      -0.00629136      -0.00118996      -0.00302480
C        6.17412072       2.10950540      10.03048169       0.00000000       0.00378752       0.00481041       0.00032329
C        7.39459684       2.82673896      10.04206546       0.00000000      -0.00438617       0.00019474       0.00277707
C        4.94333979       4.25514871       9.98355736       0.00000000       0.00758296       0.00263718      -0.00191244
C        6.17410960       4.96574275      10.03367260       0.00000000      -0.00053155      -0.00150083      -0.00132839
C        3.70072200       6.39378323      10.03378342       0.00000000      -0.00066828      -0.00233623       0.00046115
C        4.93208946       7.09204368      10.04664765       0.00000000      -0.00390679      -0.00338676      -0.00169963
Ni       3.70036744       3.53676631      11.45645141       2.00000000       0.00497208      -0.00401241       0.00789162
