33
Lattice="9.84 0.0 0.0 -4.92 8.521689973238876 0.0 0.0 -0.0 20.0" Properties=species:S:1:pos:R:3:initial_magmoms:R:1:forces:R:3 energy=-9795.9624 free_energy=-9795.993243 stress="-0.021711950024349978 3.94807800910484e-06 -4.5907883826800474e-07 3.94807800910484e-06 -0.021722876100700752 -1.377236514804014e-06 -4.5907883826800474e-07 -1.377236514804014e-06 -1.4323259753961746e-05" dipole="0.0 0.0 0.36617742456678626" pbc="T T F"
C       -0.01203907      -0.01821460      10.03097663       0.00000000       0.00413832       0.00216148      -0.00165764
C        1.21861117       0.69224057       9.98079256       0.00000000       0.00065267       0.00112116       0.00318333
C       -1.23232055       2.12076168      10.04327507       0.00000000       0.00462765      -0.00245682       0.00211399
C       -0.01210243       2.83795624      10.03346747       0.00000000       0.01051154      -0.00526577       0.00160578
C       -2.45839584       4.25051710      10.05431565       0.00000000       0.00009377       0.00029395       0.00206166
C       -1.22911569       4.96015107      10.05353641       0.00000000      -0.00075619       0.00074413       0.00016481
C       -3.68974212       6.37717108      10.04369375       0.00000000       0.00237763       0.00641056      -0.00062493
C       -2.45841294       7.07516999      10.03094136       0.00000000      -0.00017149       0.01143352       0.00015697
C        2.46160435      -0.02537322       9.98012752       0.00000000       0.00047221       0.00136664      -0.00053129
C        3.70456886       0.69220742       9.98019310       0.00000000      -0.00085515       0.00084409       0.00272848
C        1.21866289       2.12747212       9.98326747       0.00000000       0.00147985       0.00022911      -0.00253562
C        2.46155782       2.84513911       9.98451943       0.00000000      -0.00018553      -0.00004733      -0.00392800
C       -0.00099313       4.25332370      10.04628130       0.00000000       0.00612164      -0.00095478      -0.00328646
C        1.23017369       4.96413372      10.04681557       0.00000000       0.00392070      -0.00563455      -0.00083026
C       -1.22707046       6.37718050      10.04367041       0.00000000      -0.00153017       0.00642259      -0.00106305
C        0.00406106       7.08796943      10.04321687       0.00000000      -0.00157686       0.00720657       0.00034471
C        4.93525790      -0.01823388      10.03029909       0.00000000      -0.00453013       0.00196767      -0.00136700
C        6.15550368       0.69910535      10.04187789       0.00000000      -0.00747798       0.00006099       0.00201919
C        3.70448228       2.12744036       9.98257681       0.00000000      -0.00163180      -0.00025644      -0.00093367
C        4.93521713       2.83793418      10.03275470       0.00000000      -0.00917745      -0.00423666       0.00150420
C        2.46159313       4.26613157      10.03571867       0.00000000      -0.00022497      -0.00901046      -0.00152958
C        3.69299861       4.96413367      10.04651789       0.00000000      -0.00357980      -0.00474772       0.00006849
C        1.23222856       6.38117125      10.05353045       0.00000000       0.00264029       0.00444791       0.00188110
C        2.46157760       7.09089796      10.05429948       0.00000000       0.00095393       0.00115869      -0.00368953
C        7.38161053      -0.01123081      10.05104228       0.00000000      -0.00082720      -0.00151466       0.00162622
C        8.60767985       0.69909828      10.04242696       0.00000000       0.00842538       0.00038657       0.00139449
C        6.15547941       2.12076714      10.04276806       0.00000000      -0.00497748      -0.00282544       0.00191324
C        7.38156833       2.83107913      10.05238409       0.00000000       0.00044812      -0.00166101      -0.00364852
C        4.92418059       4.25331968      10.04579037       0.00000000      -0.00629326      -0.00197088      -0.00300017
C        6.15229923       4.96012973      10.05333126       0.00000000       0.00028118       0.00157017      -0.00008264
C        3.69097156       6.38118908      10.05362118       0.00000000      -0.00298647       0.00367406       0.00093946
C        4.91911977       7.08798518      10.04347457       0.00000000       0.00180499       0.00695895       0.00060202
Ni       2.46196827       1.40693033      11.45523953       2.00000000       0.00107531       0.00294432       0.00455276
