32
Lattice="3.591774264265943 0.0 0.0 -9.68081031404745e-20 3.591774264265943 0.0 0.0 -0.0 43.469153490997286" Properties=species:S:1:pos:R:3:tags:I:1:forces:R:3 energy=-5222.021412 free_energy=-5222.040229 stress="0.012274941793377563 -0.01349489789819096 0.0 -0.01349489789819096 0.012274941793377563 -0.0 0.0 -0.0 -0.00011082163155789634" dipole="0.0 0.0 2.6857070924688598e-05" pbc="T T F"
C        0.00000001      -0.00000001      15.06658310        4       0.00000023      -0.00000031      -0.00155480
C        0.89794356       0.89794357      15.87145187        4       0.00000000       0.00000033       0.00681196
C        1.79588712       1.79588715      15.06658309        4      -0.00000026       0.00000003      -0.00155462
C        2.69383070       2.69383070      15.87145186        4      -0.00000023       0.00000021       0.00681188
C       -0.00000001       1.79588714      16.80209986        4       0.00000015      -0.00000018      -0.00293332
C        0.89794356       2.69383071      17.69109044        4       0.00000010      -0.00000023      -0.00675174
C        1.79588713       0.00000001      16.80209987        4      -0.00000010      -0.00000008      -0.00293360
C        2.69383069       0.89794357      17.69109044        4       0.00000023      -0.00000000      -0.00675182
C       -0.00000001       0.00000001      18.59225312        3      -0.00000010       0.00000003      -0.00602919
C        0.89794356       0.89794357      19.48907727        3       0.00000036      -0.00000008       0.00286506
C        1.79588713       1.79588714      18.59225313        3      -0.00000026       0.00000018      -0.00602926
C        2.69383069       2.69383070      19.48907727        3      -0.00000000      -0.00000000       0.00286490
C       -0.00000001       1.79588714      20.38755503        3       0.00000005      -0.00000005       0.00842756
C        0.89794356       2.69383070      21.28533159        3      -0.00000005      -0.00000010       0.00472803
C        1.79588712       0.00000001      20.38755502        3       0.00000005      -0.00000003       0.00842759
C        2.69383069       0.89794357      21.28533159        3      -0.00000000       0.00000000       0.00472795
C        0.00000000       0.00000001      22.18382507        2      -0.00000023      -0.00000021      -0.00462302
C        0.89794357       0.89794357      23.08160381        2      -0.00000046       0.00000003      -0.00837933
C        1.79588712       1.79588714      22.18382507        2       0.00000039       0.00000015      -0.00462315
C        2.69383070       2.69383070      23.08160381        2      -0.00000005      -0.00000005      -0.00837933
C        0.00000000       1.79588713      23.98008482        2      -0.00000013      -0.00000000      -0.00291735
C        0.89794357       2.69383069      24.87691037        2       0.00000008       0.00000018       0.00591647
C        1.79588713      -0.00000000      23.98008482        2       0.00000000      -0.00000023      -0.00291723
C        2.69383070       0.89794356      24.87691037        2       0.00000003       0.00000046       0.00591637
C       -0.00000000      -0.00000000      25.77807185        1       0.00000005      -0.00000023       0.00658874
C        0.89794356       0.89794356      26.66705720        1      -0.00000010       0.00000028       0.00279679
C        1.79588713       1.79588713      25.77807186        1      -0.00000005      -0.00000015       0.00658876
C        2.69383070       2.69383069      26.66705720        1      -0.00000010       0.00000036       0.00279692
C       -0.00000000       1.79588713      27.59769672        1       0.00000013      -0.00000018      -0.00686343
C        0.89794362       2.69383065      28.40254863        1       0.00000021      -0.00000036       0.00195615
C        1.79588713       0.00000000      27.59769672        1       0.00000010      -0.00000018      -0.00686387
C        2.69383067       0.89794359      28.40254865        1      -0.00000023       0.00000031       0.00195589
