SystemName	c2
SystemLabel	c2

DM.MixingWeight	0.1
MaxSCFIterations	100
SCFMustConverge	True

Spin	non-polarized
XC.functional	GGA
XC.authors	PBE

MeshCutoff	3129.309392802233	eV
PAO.EnergyShift	0.13605693012183623	eV

NumberOfSpecies	1
NumberOfAtoms	32
%block ChemicalSpecieslabel
    1 6 C.1 C.1.psml
%endblock ChemicalSpecieslabel

%block PAO.BasisSizes
    C.1	DZP
%endblock PAO.BasisSizes


LatticeConstant	1.0 Ang
%block LatticeVectors
    3.591774264265943 0.0 0.0
    -9.68081031404745e-20 3.591774264265943 0.0
    0.0 -0.0 43.469153490997286
%endblock LatticeVectors
AtomicCoordinatesFormat	Ang
%block AtomicCoordinatesAndAtomicSpecies
    8.385379997593018e-09 -1.1962358043419546e-08 15.066583097289413 1
    0.8979435600044319 0.8979435728696951 15.87145186664939 1
    1.795887117270547 1.7958871513615506 15.066583090073117 1
    2.693830695227562 2.6938307027783486 15.87145186328001 1
    -7.922963554922348e-09 1.795887138069933 16.80209986109011 1
    0.8979435604169532 2.693830708125509 17.691090440167134 1
    1.795887128984573 9.272994716067854e-09 16.802099865345784 1
    2.693830688655151 0.8979435711023019 17.69109044057864 1
    -8.027066887716634e-09 7.2505115789345e-09 18.592253124707646 1
    0.8979435562167184 0.8979435696424879 19.48907726726917 1
    1.7958871261546803 1.7958871362572824 18.592253130451965 1
    2.6938306948426787 2.693830701572644 19.489077267970885 1
    -7.48694547043083e-09 1.7958871409723598 20.38755502826554 1
    0.8979435643666366 2.6938307040553426 21.285331589609 1
    1.7958871247549255 6.734354306578036e-09 20.387555020741424 1
    2.6938306948004076 0.897943570312196 21.285331591429074 1
    3.911643687761889e-09 1.073133228354391e-08 22.183825069429986 1
    0.8979435709678649 0.8979435667814158 23.081603807211263 1
    1.7958871241784744 1.795887136536747 22.1838250745044 1
    2.6938306991394567 2.6938306985993945 23.081603805679666 1
    1.0481957061211556e-09 1.7958871294102638 23.980084820061265 1
    0.8979435651200092 2.6938306928734854 24.87691036599835 1
    1.7958871307845088 -1.1005447112775388e-09 23.980084816459907 1
    2.6938306966831633 0.8979435568827068 24.876910372982437 1
    -2.9241923695803523e-09 -3.1998322310064285e-09 25.77807185436744 1
    0.8979435628021263 0.8979435557377123 26.66705720184463 1
    1.795887130093623 1.7958871285105402 25.77807185596469 1
    2.693830701880301 2.6938306926815287 26.667057200234908 1
    -1.9836700009079445e-09 1.7958871269315202 27.597696716450777 1
    0.8979436174407672 2.693830646628551 28.402548630605498 1
    1.7958871341741784 3.3721582725137605e-10 27.59769672176759 1
    2.6938306693030016 0.8979435912450071 28.402548651375124 1
%endblock AtomicCoordinatesAndAtomicSpecies
%block DM.InitSpin
%endblock DM.InitSpin

DM.UseSaveDM	True

#KPoint grid
%block kgrid_Monkhorst_Pack
     5       0       0  0.0
     0       5       0  0.0
     0       0       1  0.0
%endblock kgrid_Monkhorst_Pack

