
     Program PWSCF v.7.5 starts on 25Jul2026 at 20:17:42 

     This program is part of the open-source Quantum ESPRESSO suite
     for quantum simulation of materials; please cite
         "P. Giannozzi et al., J. Phys.:Condens. Matter 21 395502 (2009);
         "P. Giannozzi et al., J. Phys.:Condens. Matter 29 465901 (2017);
         "P. Giannozzi et al., J. Chem. Phys. 152 154105 (2020);
          URL http://www.quantum-espresso.org", 
     in publications or presentations arising from this work. More details at
     http://www.quantum-espresso.org/quote

     Parallel version (MPI & OpenMP), running on      10 processor cores
     Number of MPI processes:                10
     Threads/MPI process:                     1

     MPI processes distributed on     1 nodes
     212650 MiB available memory on the printing compute node when the environment starts

     Reading input from espresso.pwi
Warning: card &CELL ignored
Warning: card &FCP ignored
Warning: card &RISM ignored

     Current dimensions of program PWSCF are:
     Max number of different atomic species (ntypx) = 10
     Max number of k-points (npk) =  40000
     Max angular momentum in pseudopotentials (lmaxx) =  4
     file C.pbe-n-kjpaw_psl.1.0.0.UPF: wavefunction(s)  2S 2P renormalized
     Message from routine set_cutoff:
     ecutrho < 4*ecutwfc, are you sure?
     Found identity + (  0.0000 -0.5000 -0.5000) symmetry
     This is a supercell, fractional translations are disabled
     Message from routine setup:
     using ibrav=0 with symmetry is DISCOURAGED, use correct ibrav instead

     R & G space division:  proc/nbgrp/npool/nimage =      10
     Subspace diagonalization in iterative solution of the eigenvalue problem:
     a serial algorithm will be used


     Parallelization info
     --------------------
     sticks:   dense  smooth     PW     G-vecs:    dense   smooth      PW
     Min          37      37     14                  549      549     129
     Max          38      38     16                  552      552     132
     Sum         373     373    145                 5497     5497    1309

     Using Slab Decomposition



     bravais-lattice index     =            0
     lattice parameter (alat)  =       6.7407  a.u.
     unit-cell volume          =     306.2710 (a.u.)^3
     number of atoms/cell      =            8
     number of atomic types    =            1
     number of electrons       =        32.00
     number of Kohn-Sham states=           16
     kinetic-energy cutoff     =      30.0000  Ry
     charge density cutoff     =     105.0000  Ry
     scf convergence threshold =      1.0E-08
     mixing beta               =       0.7000
     number of iterations used =            8  plain     mixing
     Exchange-correlation= SLA  PW   PBX  PBC
                           (   1   4   3   4   0   0   0)

     celldm(1)=   6.740653  celldm(2)=   0.000000  celldm(3)=   0.000000
     celldm(4)=   0.000000  celldm(5)=   0.000000  celldm(6)=   0.000000

     crystal axes: (cart. coord. in units of alat)
               a(1) = (   1.000000   0.000000   0.000000 )  
               a(2) = (   0.000000   1.000000   0.000000 )  
               a(3) = (   0.000000   0.000000   1.000000 )  

     reciprocal axes: (cart. coord. in units 2 pi/alat)
               b(1) = (  1.000000  0.000000  0.000000 )  
               b(2) = (  0.000000  1.000000  0.000000 )  
               b(3) = (  0.000000  0.000000  1.000000 )  


     PseudoPot. # 1 for C  read from file:
     /lustre07/scratch/tanay11/siesta-qe-notebook-benchmark/pseudo_espresso/C.pbe-n-kjpaw_psl.1.0.0.UPF
     MD5 check sum: 5d2aebdfa2cae82b50a7e79e9516da0f
     Pseudo is Projector augmented-wave + core cor, Zval =  4.0
     Generated using "atomic" code by A. Dal Corso  v.5.1
     Shape of augmentation charge: PSQ
     Using radial grid of 1073 points,  4 beta functions with: 
                l(1) =   0
                l(2) =   0
                l(3) =   1
                l(4) =   1
     Q(r) pseudized with 0 coefficients 


     atomic species   valence    mass     pseudopotential
     C                 4.00    12.01100     C ( 1.00)

     24 Sym. Ops. (no inversion) found



   Cartesian axes

     site n.     atom                  positions (alat units)
         1        C      tau(   1) = (   0.0000000   0.0000000   0.0000000  )
         2        C      tau(   2) = (   0.2500000   0.2500000   0.2500000  )
         3        C      tau(   3) = (   0.0000000   0.5000000   0.5000000  )
         4        C      tau(   4) = (   0.2500000   0.7500000   0.7500000  )
         5        C      tau(   5) = (   0.5000000   0.0000000   0.5000000  )
         6        C      tau(   6) = (   0.7500000   0.2500000   0.7500000  )
         7        C      tau(   7) = (   0.5000000   0.5000000   0.0000000  )
         8        C      tau(   8) = (   0.7500000   0.7500000   0.2500000  )

     number of k points=    10
                       cart. coord. in units 2pi/alat
        k(    1) = (   0.0000000   0.0000000   0.0000000), wk =   0.0312500
        k(    2) = (   0.0000000   0.0000000   0.2500000), wk =   0.1875000
        k(    3) = (   0.0000000   0.0000000  -0.5000000), wk =   0.0937500
        k(    4) = (   0.0000000   0.2500000   0.2500000), wk =   0.3750000
        k(    5) = (   0.0000000   0.2500000  -0.5000000), wk =   0.3750000
        k(    6) = (   0.0000000  -0.5000000  -0.5000000), wk =   0.0937500
        k(    7) = (   0.2500000   0.2500000   0.2500000), wk =   0.2500000
        k(    8) = (   0.2500000   0.2500000  -0.5000000), wk =   0.3750000
        k(    9) = (   0.2500000  -0.5000000  -0.5000000), wk =   0.1875000
        k(   10) = (  -0.5000000  -0.5000000  -0.5000000), wk =   0.0312500

     Dense  grid:     5497 G-vectors     FFT dimensions: (  24,  24,  24)

     Estimated max dynamical RAM per process >       1.32 MB

     Estimated total dynamical RAM >      13.24 MB

     Check: negative core charge=   -0.001001

     Initial potential from superposition of free atoms

     starting charge      31.9997, renormalised to      32.0000
     Starting wfcs are   32 randomized atomic wfcs
     Checking if some PAW data can be deallocated... 

     total cpu time spent up to now is        0.6 secs

     per-process dynamical memory:    83.0 Mb

     Self-consistent Calculation

     iteration #  1     ecut=    30.00 Ry     beta= 0.70
     Davidson diagonalization with overlap
     ethr =  1.00E-02,  avg # of iterations =  2.0

     total cpu time spent up to now is        0.7 secs

     total energy              =    -147.42055260 Ry
     estimated scf accuracy    <       0.45523655 Ry

     iteration #  2     ecut=    30.00 Ry     beta= 0.70
     Davidson diagonalization with overlap
     ethr =  1.42E-03,  avg # of iterations =  1.0

     total cpu time spent up to now is        0.7 secs

     total energy              =    -147.44954857 Ry
     estimated scf accuracy    <       0.01097236 Ry

     iteration #  3     ecut=    30.00 Ry     beta= 0.70
     Davidson diagonalization with overlap
     ethr =  3.43E-05,  avg # of iterations =  2.1

     total cpu time spent up to now is        0.9 secs

     total energy              =    -147.45119308 Ry
     estimated scf accuracy    <       0.00025884 Ry

     iteration #  4     ecut=    30.00 Ry     beta= 0.70
     Davidson diagonalization with overlap
     ethr =  8.09E-07,  avg # of iterations =  2.6

     total cpu time spent up to now is        1.0 secs

     total energy              =    -147.45124958 Ry
     estimated scf accuracy    <       0.00000157 Ry

     iteration #  5     ecut=    30.00 Ry     beta= 0.70
     Davidson diagonalization with overlap
     ethr =  4.92E-09,  avg # of iterations =  4.4

     total cpu time spent up to now is        1.1 secs

     total energy              =    -147.45125230 Ry
     estimated scf accuracy    <       0.00000012 Ry

     iteration #  6     ecut=    30.00 Ry     beta= 0.70
     Davidson diagonalization with overlap
     ethr =  3.64E-10,  avg # of iterations =  2.2

     total cpu time spent up to now is        1.2 secs

     End of self-consistent calculation

          k = 0.0000 0.0000 0.0000 (   847 PWs)   bands (ev):

    -8.1030   0.6103   0.6104   0.6104   0.6104   0.6104   0.6104   7.1142
     7.1142   7.1142   7.1142   7.1142   7.1142  13.4920  13.4920  13.4920

          k = 0.0000 0.0000 0.2500 (   844 PWs)   bands (ev):

    -7.5269  -3.0478   0.9476   0.9477   0.9477   0.9477   4.8049   6.1068
     6.1068   6.1068   6.1069   7.6808   7.6808  11.7229  11.7229  12.0909

          k = 0.0000 0.0000-0.5000 (   852 PWs)   bands (ev):

    -5.8184  -5.8184   1.3996   1.3996   1.3996   1.3996   5.0988   5.0988
     5.0988   5.0989   8.8781   8.8781   9.3030   9.3030   9.3030   9.3030

          k = 0.0000 0.2500 0.2500 (   846 PWs)   bands (ev):

    -6.9548  -2.5393  -2.5393   0.3911   1.6464   4.0941   4.3760   4.3760
     6.4304   6.4304   7.4852   7.4853   8.0473   9.4221  10.1776  12.6892

          k = 0.0000 0.2500-0.5000 (   854 PWs)   bands (ev):

    -5.2624  -5.2623  -1.1410  -1.1410   2.9748   2.9748   4.5417   4.5418
     6.8874   6.8874   7.9191   7.9192   7.9513   7.9513  10.5358  10.5358

          k = 0.0000-0.5000-0.5000 (   872 PWs)   bands (ev):

    -3.6366  -3.6365  -3.6365  -3.6365   4.6898   4.6898   4.6898   4.6898
     5.8023   5.8023   5.8023   5.8023  10.4107  10.4107  10.4107  10.4108

          k = 0.2500 0.2500 0.2500 (   847 PWs)   bands (ev):

    -6.3874  -2.0825  -2.0824  -2.0824   2.6073   2.6073   2.6073   6.6665
     6.6666   6.6666   6.8125   8.5441   8.5441   8.5441  11.7047  11.7047

          k = 0.2500 0.2500-0.5000 (   850 PWs)   bands (ev):

    -4.7163  -4.7163  -1.3237  -1.3237   1.0303   1.0303   4.2831   4.2831
     7.0984   7.0984   8.7400   8.7400   9.9048   9.9048  10.2234  10.2234

          k = 0.2500-0.5000-0.5000 (   856 PWs)   bands (ev):

    -3.1562  -3.1561  -3.1561  -3.1561   1.8425   1.8425   1.8425   1.8426
     8.8379   8.8379   8.8379   8.8379  10.5205  10.5205  10.5205  10.5206

          k =-0.5000-0.5000-0.5000 (   840 PWs)   bands (ev):

    -2.3351  -2.3350  -2.3350  -2.3350   0.0197   0.0197   0.0197   0.0197
    10.6477  10.6477  10.6477  10.6478  10.6478  10.6478  10.6478  10.6478

     highest occupied level (ev):    13.4920

!    total energy              =    -147.45125232 Ry
     total all-electron energy =      -609.564035 Ry
     estimated scf accuracy    <          3.3E-09 Ry

     The total energy is the sum of the following terms:
     one-electron contribution =      33.94436146 Ry
     hartree contribution      =       7.75084709 Ry
     xc contribution           =     -37.54550475 Ry
     ewald contribution        =    -102.29129742 Ry
     one-center paw contrib.   =     -49.30965869 Ry

     convergence has been achieved in   6 iterations

     Writing all to output data dir ./c2_qe.save/ :
     XML data file, charge density, pseudopotentials, collected wavefunctions

     init_run     :      0.27s CPU      0.28s WALL (       1 calls)
     electrons    :      0.65s CPU      0.76s WALL (       1 calls)

     Called by init_run:
     wfcinit      :      0.03s CPU      0.04s WALL (       1 calls)
     potinit      :      0.04s CPU      0.04s WALL (       1 calls)
     hinit0       :      0.19s CPU      0.19s WALL (       1 calls)

     Called by electrons:
     c_bands      :      0.36s CPU      0.36s WALL (       6 calls)
     sum_band     :      0.03s CPU      0.03s WALL (       6 calls)
     v_of_rho     :      0.01s CPU      0.01s WALL (       7 calls)
     newd         :      0.00s CPU      0.00s WALL (       7 calls)
     PAW_pot      :      0.28s CPU      0.28s WALL (       7 calls)
     mix_rho      :      0.00s CPU      0.00s WALL (       6 calls)

     Called by c_bands:
     init_us_2    :      0.00s CPU      0.00s WALL (     130 calls)
     cegterg      :      0.35s CPU      0.35s WALL (      60 calls)

     Called by *egterg:
     cdiaghg      :      0.15s CPU      0.15s WALL (     203 calls)
     h_psi        :      0.19s CPU      0.19s WALL (     213 calls)
     s_psi        :      0.02s CPU      0.02s WALL (     213 calls)
     g_psi        :      0.00s CPU      0.00s WALL (     143 calls)

     Called by h_psi:
     h_psi:calbec :      0.02s CPU      0.02s WALL (     213 calls)
     vloc_psi     :      0.15s CPU      0.15s WALL (     213 calls)
                                        0.00s GPU  (     213 calls)
     add_vuspsi   :      0.02s CPU      0.02s WALL (     213 calls)

     General routines
     calbec       :      0.02s CPU      0.02s WALL (     273 calls)
     fft          :      0.18s CPU      0.18s WALL (      77 calls)
     ffts         :      0.00s CPU      0.00s WALL (       6 calls)
     fftw         :      0.16s CPU      0.16s WALL (    7042 calls)

     Parallel routines

     PWSCF        :      1.02s CPU      1.75s WALL


   This run was terminated on:  20:17:43  25Jul2026            

=------------------------------------------------------------------------------=
   JOB DONE.
=------------------------------------------------------------------------------=
