SystemName	c2
SystemLabel	c2

DM.MixingWeight	0.1
MaxSCFIterations	100
SaveHS	True
WriteEigenvalues	True
SCFMustConverge	True

Spin	non-polarized
XC.functional	GGA
XC.authors	PBE

MeshCutoff	3129.309392802233	eV
PAO.EnergyShift	0.13605693012183623	eV

NumberOfSpecies	1
NumberOfAtoms	8
%block ChemicalSpecieslabel
    1 6 C.1 C.1.psml
%endblock ChemicalSpecieslabel

%block PAO.BasisSizes
    C.1	DZP
%endblock PAO.BasisSizes


LatticeConstant	1.0 Ang
%block LatticeVectors
    3.591774264265943 -1.669154733547211e-21 -1.6706909969565732e-20
    -3.2061584914499825e-20 3.591774264265943 -1.0012922886621863e-19
    1.454713141326009e-20 3.321125725744118e-21 3.591774264265943
%endblock LatticeVectors
AtomicCoordinatesFormat	Ang
%block AtomicCoordinatesAndAtomicSpecies
    0.0 0.0 0.0 1
    0.8979435660664846 0.8979435660664846 0.8979435660664846 1
    -6.209914873222252e-20 1.7958871321329692 1.7958871321329692 1
    0.8979435660664846 2.6938306981994575 2.6938306981994575 1
    1.7958871321329692 -1.5713962349182855e-19 1.7958871321329692 1
    2.6938306981994575 0.8979435660664846 2.6938306981994575 1
    1.7958871321329692 1.7958871321329692 7.964246835714799e-20 1
    2.6938306981994575 2.6938306981994575 0.8979435660664846 1
%endblock AtomicCoordinatesAndAtomicSpecies
%block DM.InitSpin
%endblock DM.InitSpin


#KPoint grid
%block kgrid_Monkhorst_Pack
     5       0       0  0.0
     0       5       0  0.0
     0       0       5  0.0
%endblock kgrid_Monkhorst_Pack

