
     Program PWSCF v.7.5 starts on 25Jul2026 at 20:26:56 

     This program is part of the open-source Quantum ESPRESSO suite
     for quantum simulation of materials; please cite
         "P. Giannozzi et al., J. Phys.:Condens. Matter 21 395502 (2009);
         "P. Giannozzi et al., J. Phys.:Condens. Matter 29 465901 (2017);
         "P. Giannozzi et al., J. Chem. Phys. 152 154105 (2020);
          URL http://www.quantum-espresso.org", 
     in publications or presentations arising from this work. More details at
     http://www.quantum-espresso.org/quote

     Parallel version (MPI & OpenMP), running on      10 processor cores
     Number of MPI processes:                10
     Threads/MPI process:                     1

     MPI processes distributed on     1 nodes
     214088 MiB available memory on the printing compute node when the environment starts

     Reading input from espresso.pwi
Warning: card &CELL ignored
Warning: card &FCP ignored
Warning: card &RISM ignored

     Current dimensions of program PWSCF are:
     Max number of different atomic species (ntypx) = 10
     Max number of k-points (npk) =  40000
     Max angular momentum in pseudopotentials (lmaxx) =  4
     file C.pbe-n-kjpaw_psl.1.0.0.UPF: wavefunction(s)  2S 2P renormalized
     Found identity + (  0.0000 -0.5000 -0.5000) symmetry
     This is a supercell, fractional translations are disabled
     Message from routine setup:
     using ibrav=0 with symmetry is DISCOURAGED, use correct ibrav instead

     R & G space division:  proc/nbgrp/npool/nimage =      10
     Subspace diagonalization in iterative solution of the eigenvalue problem:
     a serial algorithm will be used


     Parallelization info
     --------------------
     sticks:   dense  smooth     PW     G-vecs:    dense   smooth      PW
     Min         116     116     34                 2970     2970     462
     Max         117     117     35                 2974     2974     464
     Sum        1161    1161    341                29711    29711    4625

     Using Slab Decomposition



     bravais-lattice index     =            0
     lattice parameter (alat)  =       6.7518  a.u.
     unit-cell volume          =     307.7939 (a.u.)^3
     number of atoms/cell      =            8
     number of atomic types    =            1
     number of electrons       =        32.00
     number of Kohn-Sham states=           16
     kinetic-energy cutoff     =      80.0000  Ry
     charge density cutoff     =     320.0000  Ry
     scf convergence threshold =      1.0E-08
     mixing beta               =       0.7000
     number of iterations used =            8  plain     mixing
     Exchange-correlation= SLA  PW   PBX  PBC
                           (   1   4   3   4   0   0   0)

     celldm(1)=   6.751807  celldm(2)=   0.000000  celldm(3)=   0.000000
     celldm(4)=   0.000000  celldm(5)=   0.000000  celldm(6)=   0.000000

     crystal axes: (cart. coord. in units of alat)
               a(1) = (   1.000000   0.000000   0.000000 )  
               a(2) = (   0.000000   1.000000   0.000000 )  
               a(3) = (   0.000000   0.000000   1.000000 )  

     reciprocal axes: (cart. coord. in units 2 pi/alat)
               b(1) = (  1.000000  0.000000  0.000000 )  
               b(2) = (  0.000000  1.000000  0.000000 )  
               b(3) = (  0.000000  0.000000  1.000000 )  


     PseudoPot. # 1 for C  read from file:
     /lustre07/scratch/tanay11/siesta-qe-notebook-benchmark/pseudo_espresso/C.pbe-n-kjpaw_psl.1.0.0.UPF
     MD5 check sum: 5d2aebdfa2cae82b50a7e79e9516da0f
     Pseudo is Projector augmented-wave + core cor, Zval =  4.0
     Generated using "atomic" code by A. Dal Corso  v.5.1
     Shape of augmentation charge: PSQ
     Using radial grid of 1073 points,  4 beta functions with: 
                l(1) =   0
                l(2) =   0
                l(3) =   1
                l(4) =   1
     Q(r) pseudized with 0 coefficients 


     atomic species   valence    mass     pseudopotential
     C                 4.00    12.01100     C ( 1.00)

     24 Sym. Ops. (no inversion) found



   Cartesian axes

     site n.     atom                  positions (alat units)
         1        C      tau(   1) = (   0.0000000   0.0000000   0.0000000  )
         2        C      tau(   2) = (   0.2499996   0.2499996   0.2499996  )
         3        C      tau(   3) = (  -0.0000000   0.5000000   0.5000000  )
         4        C      tau(   4) = (   0.2499996   0.7500004   0.7500004  )
         5        C      tau(   5) = (   0.5000000   0.0000000   0.5000000  )
         6        C      tau(   6) = (   0.7500004   0.2499996   0.7500004  )
         7        C      tau(   7) = (   0.5000000   0.5000000   0.0000000  )
         8        C      tau(   8) = (   0.7500004   0.7500004   0.2499996  )

     number of k points=    10
                       cart. coord. in units 2pi/alat
        k(    1) = (   0.0000000   0.0000000   0.0000000), wk =   0.0160000
        k(    2) = (   0.0000000   0.0000000   0.2000000), wk =   0.0960000
        k(    3) = (   0.0000000   0.0000000   0.4000000), wk =   0.0960000
        k(    4) = (   0.0000000   0.2000000   0.2000000), wk =   0.1920000
        k(    5) = (   0.0000000   0.2000000   0.4000000), wk =   0.3840000
        k(    6) = (   0.0000000   0.4000000   0.4000000), wk =   0.1920000
        k(    7) = (   0.2000000   0.2000000   0.2000000), wk =   0.1280000
        k(    8) = (   0.2000000   0.2000000   0.4000000), wk =   0.3840000
        k(    9) = (   0.2000000   0.4000000   0.4000000), wk =   0.3840000
        k(   10) = (   0.4000000   0.4000000   0.4000000), wk =   0.1280000

     Dense  grid:    29711 G-vectors     FFT dimensions: (  40,  40,  40)

     Estimated max dynamical RAM per process >       6.42 MB

     Estimated total dynamical RAM >      64.24 MB

     Check: negative core charge=   -0.000014

     Initial potential from superposition of free atoms

     starting charge      31.9997, renormalised to      32.0000
     Starting wfcs are   32 randomized atomic wfcs
     Checking if some PAW data can be deallocated... 

     total cpu time spent up to now is        0.5 secs

     per-process dynamical memory:    85.4 Mb

     Self-consistent Calculation

     iteration #  1     ecut=    80.00 Ry     beta= 0.70
     Davidson diagonalization with overlap
     ethr =  1.00E-02,  avg # of iterations =  2.0

     total cpu time spent up to now is        0.6 secs

     total energy              =    -147.44647117 Ry
     estimated scf accuracy    <       0.44003525 Ry

     iteration #  2     ecut=    80.00 Ry     beta= 0.70
     Davidson diagonalization with overlap
     ethr =  1.38E-03,  avg # of iterations =  1.0

     total cpu time spent up to now is        0.8 secs

     total energy              =    -147.46939110 Ry
     estimated scf accuracy    <       0.01234679 Ry

     iteration #  3     ecut=    80.00 Ry     beta= 0.70
     Davidson diagonalization with overlap
     ethr =  3.86E-05,  avg # of iterations =  2.5

     total cpu time spent up to now is        1.0 secs

     total energy              =    -147.47236703 Ry
     estimated scf accuracy    <       0.00024252 Ry

     iteration #  4     ecut=    80.00 Ry     beta= 0.70
     Davidson diagonalization with overlap
     ethr =  7.58E-07,  avg # of iterations =  4.5

     total cpu time spent up to now is        1.2 secs

     total energy              =    -147.47252607 Ry
     estimated scf accuracy    <       0.00000519 Ry

     iteration #  5     ecut=    80.00 Ry     beta= 0.70
     Davidson diagonalization with overlap
     ethr =  1.62E-08,  avg # of iterations =  5.3

     total cpu time spent up to now is        1.4 secs

     total energy              =    -147.47253246 Ry
     estimated scf accuracy    <       0.00000036 Ry

     iteration #  6     ecut=    80.00 Ry     beta= 0.70
     Davidson diagonalization with overlap
     ethr =  1.12E-09,  avg # of iterations =  3.2

     total cpu time spent up to now is        1.6 secs

     total energy              =    -147.47253258 Ry
     estimated scf accuracy    <       0.00000001 Ry

     iteration #  7     ecut=    80.00 Ry     beta= 0.70
     Davidson diagonalization with overlap
     ethr =  3.77E-11,  avg # of iterations =  4.4

     total cpu time spent up to now is        1.8 secs

     End of self-consistent calculation

          k = 0.0000 0.0000 0.0000 (  3743 PWs)   bands (ev):

    -8.1518   0.5268   0.5268   0.5268   0.5268   0.5268   0.5268   6.9857
     6.9857   6.9857   6.9857   6.9857   6.9857  13.2579  13.2579  13.2579

          k = 0.0000 0.0000 0.2000 (  3759 PWs)   bands (ev):

    -7.7843  -2.4515   0.7495   0.7496   0.7496   0.7496   3.8436   6.2812
     6.2812   6.2812   6.2812   7.3434   7.3434  12.0389  12.0389  12.3866

          k = 0.0000 0.0000 0.4000 (  3728 PWs)   bands (ev):

    -6.6894  -4.8932   1.2105   1.2105   1.2105   1.2105   5.1736   5.1736
     5.1736   5.1736   7.1858   8.3936   8.3936  10.0482  10.0482  10.1711

          k = 0.0000 0.2000 0.2000 (  3727 PWs)   bands (ev):

    -7.4184  -2.1367  -2.1367   0.5702   1.1864   3.7506   3.7506   4.5265
     6.5028   6.5028   6.9961   6.9962   7.5893  10.3345  10.9413  12.7842

          k = 0.0000 0.2000 0.4000 (  3699 PWs)   bands (ev):

    -6.3290  -4.5460  -1.2509  -0.0890   2.0509   3.1147   3.9896   4.9762
     6.2014   6.9080   7.4744   7.4840   8.2366   8.9405   9.0568  11.3630

          k = 0.0000 0.4000 0.4000 (  3696 PWs)   bands (ev):

    -5.2599  -3.5269  -3.5269  -1.9316   3.1415   4.4354   4.6035   4.6035
     5.7932   5.7932   6.2984   7.2815   9.2249   9.4903   9.4904  11.2804

          k = 0.2000 0.2000 0.2000 (  3701 PWs)   bands (ev):

    -7.0542  -1.8462  -1.8462  -1.8462   3.0491   3.0491   3.0491   5.7718
     5.7719   5.7719   7.9197   7.9197   7.9197   8.3944  11.9415  11.9415

          k = 0.2000 0.2000 0.4000 (  3732 PWs)   bands (ev):

    -5.9712  -4.2048  -1.1506  -1.1505   1.6278   1.6278   4.4926   5.9440
     5.9440   6.2437   7.9447   7.9447   8.5703   8.8767  10.3323  11.0605

          k = 0.2000 0.4000 0.4000 (  3729 PWs)   bands (ev):

    -4.9127  -3.2175  -3.2175  -1.8113   1.1207   2.4684   2.4684   4.0967
     6.9093   7.9454   7.9454   9.3735   9.4342   9.6137   9.6137  11.1209

          k = 0.4000 0.4000 0.4000 (  3716 PWs)   bands (ev):

    -3.9042  -2.4572  -2.4572  -2.4572   0.4769   0.4769   0.4769   1.8870
     9.5641   9.5641   9.5641   9.9838   9.9838   9.9838  10.6427  10.6427

     highest occupied level (ev):    13.2579

!    total energy              =    -147.47253259 Ry
     total all-electron energy =      -609.585315 Ry
     estimated scf accuracy    <          2.3E-09 Ry

     The total energy is the sum of the following terms:
     one-electron contribution =      33.64082808 Ry
     hartree contribution      =       7.78362749 Ry
     xc contribution           =     -37.47205468 Ry
     ewald contribution        =    -102.12232028 Ry
     one-center paw contrib.   =     -49.30261320 Ry

     convergence has been achieved in   7 iterations

     Forces acting on atoms (cartesian axes, Ry/au):

     atom    1 type  1   force =     0.00000000    0.00000000    0.00000000
     atom    2 type  1   force =     0.00000424    0.00000424    0.00000424
     atom    3 type  1   force =     0.00000000    0.00000000    0.00000000
     atom    4 type  1   force =     0.00000424   -0.00000424   -0.00000424
     atom    5 type  1   force =     0.00000000    0.00000000    0.00000000
     atom    6 type  1   force =    -0.00000424    0.00000424   -0.00000424
     atom    7 type  1   force =     0.00000000    0.00000000    0.00000000
     atom    8 type  1   force =    -0.00000424   -0.00000424    0.00000424

     Total force =     0.000015     Total SCF correction =     0.000004
     SCF correction compared to forces is large: reduce conv_thr to get better values


     Computing stress (Cartesian axis) and pressure

          total   stress  (Ry/bohr**3)                   (kbar)     P=        0.21
   0.00000143   0.00000000   0.00000000            0.21        0.00        0.00
   0.00000000   0.00000143   0.00000000            0.00        0.21        0.00
   0.00000000   0.00000000   0.00000143            0.00        0.00        0.21


     Writing all to output data dir ./c2_qe.save/ :
     XML data file, charge density, pseudopotentials, collected wavefunctions

     init_run     :      0.40s CPU      0.41s WALL (       1 calls)
     electrons    :      1.26s CPU      1.41s WALL (       1 calls)
     forces       :      0.02s CPU      0.02s WALL (       1 calls)
     stress       :      0.05s CPU      0.05s WALL (       1 calls)

     Called by init_run:
     wfcinit      :      0.07s CPU      0.07s WALL (       1 calls)
     potinit      :      0.04s CPU      0.05s WALL (       1 calls)
     hinit0       :      0.28s CPU      0.28s WALL (       1 calls)

     Called by electrons:
     c_bands      :      0.87s CPU      0.90s WALL (       7 calls)
     sum_band     :      0.10s CPU      0.10s WALL (       7 calls)
     v_of_rho     :      0.02s CPU      0.02s WALL (       8 calls)
     newd         :      0.01s CPU      0.01s WALL (       8 calls)
     PAW_pot      :      0.29s CPU      0.32s WALL (       8 calls)
     mix_rho      :      0.00s CPU      0.00s WALL (       7 calls)

     Called by c_bands:
     init_us_2    :      0.02s CPU      0.02s WALL (     170 calls)
     cegterg      :      0.85s CPU      0.87s WALL (      70 calls)

     Called by *egterg:
     cdiaghg      :      0.21s CPU      0.22s WALL (     299 calls)
     h_psi        :      0.55s CPU      0.56s WALL (     309 calls)
     s_psi        :      0.04s CPU      0.04s WALL (     309 calls)
     g_psi        :      0.00s CPU      0.00s WALL (     229 calls)

     Called by h_psi:
     h_psi:calbec :      0.05s CPU      0.05s WALL (     309 calls)
     vloc_psi     :      0.45s CPU      0.46s WALL (     309 calls)
                                        0.00s GPU  (     309 calls)
     add_vuspsi   :      0.04s CPU      0.04s WALL (     309 calls)

     General routines
     calbec       :      0.10s CPU      0.10s WALL (     549 calls)
     fft          :      0.27s CPU      0.27s WALL (     113 calls)
     ffts         :      0.00s CPU      0.00s WALL (       7 calls)
     fftw         :      0.47s CPU      0.48s WALL (    8886 calls)

     Parallel routines

     PWSCF        :      1.82s CPU      2.48s WALL


   This run was terminated on:  20:26:58  25Jul2026            

=------------------------------------------------------------------------------=
   JOB DONE.
=------------------------------------------------------------------------------=
