SystemName	c2
SystemLabel	c2

DM.MixingWeight	0.05
DM.NumberPulay	6
DM.Tolerance	0.001
ElectronicTemperature	50 meV
MaxSCFIterations	400
SCF.H.Converge	False
SCFMustConverge	True

Spin	collinear
SpinPolarized	True	# Backwards compatibility.
XC.functional	GGA
XC.authors	PBE

MeshCutoff	3129.309392802233	eV
PAO.EnergyShift	0.13605693012183623	eV

NumberOfSpecies	2
NumberOfAtoms	33
%block ChemicalSpecieslabel
    1 6 C.1 C.1.psml
    2 28 Ni.2 Ni.2.psml
%endblock ChemicalSpecieslabel

%block PAO.BasisSizes
    C.1	DZP
    Ni.2	DZP
%endblock PAO.BasisSizes


LatticeConstant	1.0 Ang
%block LatticeVectors
    9.84 0.0 0.0
    -4.92 8.521689973238876 0.0
    0.0 -0.0 20.0
%endblock LatticeVectors
AtomicCoordinatesFormat	Ang
%block AtomicCoordinatesAndAtomicSpecies
    0.010275635316055605 -0.012531117669447528 10.054686456758809 1
    1.238425172516982 0.6942752699295776 10.044976701923726 1
    -1.2190344279473249 2.1164882933183975 10.05139872074296 1
    0.007184320235301848 2.826740094773624 10.04288560365413 1
    -2.445512880354278 4.248481272828662 10.04322334676524 1
    -1.219195263743241 4.958752082132751 10.052003921950696 1
    -3.6767928997056645 6.381326521301326 10.046387081923138 1
    -2.448532603829304 7.088156335744418 10.053891512117458 1
    2.4694066018178606 -0.016433874902524077 10.04444330757223 1
    3.700558041814367 0.6816175101682338 10.031215595155212 1
    1.2273346598858617 2.1095210453392212 10.032078334464288 1
    2.4577580416267257 2.820019702533316 9.982521010185462 1
    0.007059124054772429 4.248346305534739 10.042665783639864 1
    1.2271704392349676 4.965641705373104 10.031477195399505 1
    -1.2193089596766211 6.37835115171562 10.05408206237767 1
    0.009917019944254412 7.088022887040495 10.051474225396618 1
    4.931786734305086 -0.016543459321301048 10.04195524612502 1
    6.163095108323242 0.6940673922968645 10.04169491850853 1
    3.700512740464207 2.102599502742402 9.982096490110923 1
    4.9433751105122266 2.820005173374281 9.981946917907392 1
    2.4578057231871946 4.255069706020815 9.982637902998704 1
    3.7005426151027794 4.972763015255717 9.983459467740529 1
    1.2381988569214615 6.381140028190138 10.042915605191128 1
    2.4693922303406683 7.091919313972426 10.043675288715443 1
    7.391511876106472 -0.012617311569803497 10.051799600080827 1
    8.620965085641547 0.6970640777995963 10.054320209706182 1
    6.174120716359029 2.109505396971837 10.0304816935554 1
    7.3945968375509175 2.8267389614552987 10.04206545823148 1
    4.9433397919238455 4.255148710190316 9.98355735992436 1
    6.174109596041303 4.965742749424249 10.033672595805022 1
    3.7007219954764694 6.393783225470335 10.033783422100933 1
    4.932089456636949 7.092043676012733 10.046647648876881 1
    3.7003674435075635 3.5367663117279093 11.456451407710171 2
%endblock AtomicCoordinatesAndAtomicSpecies
%block DM.InitSpin
    33 2.00000000000000 
%endblock DM.InitSpin

DM.UseSaveDM	True

#KPoint grid
%block kgrid_Monkhorst_Pack
     3       0       0  0.0
     0       3       0  0.0
     0       0       1  0.0
%endblock kgrid_Monkhorst_Pack

